     Program PWSCF v.6.4.1 starts on 23Sep2023 at  0:50: 9

     Waiting for input...
     Reading input from standard input

     Current dimensions of program PWSCF are:
     Max number of different atomic species (ntypx) = 10
     Max number of k-points (npk) =  40000
     Max angular momentum in pseudopotentials (lmaxx) =  3
     Message from routine read_upf::
     Pseudo file Si.pbe-n-rrkjus_psl.1.0.0.UPF has been fixed on the fly.
To avoid this message in the future, permanently fix
 your pseudo files following these instructions:

     Subspace diagonalization in iterative solution of the eigenvalue problem:
     a serial algorithm will be used

     Message from routine setup:
     DEPRECATED: symmetry with ibrav=0, use correct ibrav instead

     bravais-lattice index     =            0
     lattice parameter (alat)  =       7.3738  a.u.
     unit-cell volume          =    1067.7252 (a.u.)^3
     number of atoms/cell      =            2
     number of atomic types    =            1
     number of electrons       =         8.00
     number of Kohn-Sham states=            8
     kinetic-energy cutoff     =      50.0000  Ry
     charge density cutoff     =     240.0000  Ry
     convergence threshold     =      4.0E-10
     mixing beta               =       0.4000
     number of iterations used =            8  plain     mixing
     Exchange-correlation      = PBE ( 1  4  3  4 0 0)

     celldm(1)=   7.373770  celldm(2)=   0.000000  celldm(3)=   0.000000
     celldm(4)=   0.000000  celldm(5)=   0.000000  celldm(6)=   0.000000

     crystal axes: (cart. coord. in units of alat)
               a(1) = (   0.499990  -0.866031  -0.000000 )
               a(2) = (   0.499990   0.866031   0.000000 )
               a(3) = (  -0.000000   0.000000   3.075148 )

     reciprocal axes: (cart. coord. in units 2 pi/alat)
               b(1) = (  1.000020 -0.577346  0.000000 )
               b(2) = (  1.000020  0.577346  0.000000 )
               b(3) = (  0.000000 -0.000000  0.325188 )

     PseudoPot. # 1 for Si read from file:
     /home/meyn/q-e-qe-7.1/pseudo/Si.pbe-n-rrkjus_psl.1.0.0.UPF
     MD5 check sum: 56671f82560c68743c116fe4c72cdc4c
     Pseudo is Ultrasoft + core correction, Zval =  4.0
     Generated using "atomic" code by A. Dal Corso v.5.1.2
     Using radial grid of 1141 points,  6 beta functions with:
                l(1) =   0
                l(2) =   0
                l(3) =   1
                l(4) =   1
                l(5) =   2
                l(6) =   2
     Q(r) pseudized with 0 coefficients

     atomic species   valence    mass     pseudopotential
        Si             4.00    28.08550     Si( 1.00)

      4 Sym. Ops. (no inversion) found

                                    s                        frac. trans.

      isym =  1     identity

 cryst.   s( 1) = (     1          0          0      )
                  (     0          1          0      )
                  (     0          0          1      )

 cart.    s( 1) = (  1.0000000  0.0000000  0.0000000 )
                  (  0.0000000  1.0000000  0.0000000 )
                  (  0.0000000  0.0000000  1.0000000 )

      isym =  2     180 deg rotation - cart. axis [0,1,0]

[...]

      isym =  3     inv. 180 deg rotation - cart. axis [0,0,1]

[...]

      isym =  4     inv. 180 deg rotation - cart. axis [1,0,0]

 cryst.   s( 4) = (     0         -1          0      )
                  (    -1          0          0      )
                  (     0          0          1      )

 cart.    s( 4) = ( -1.0000000  0.0000000  0.0000000 )
                  (  0.0000000  1.0000000  0.0000000 )
                  (  0.0000000  0.0000000  1.0000000 )

   Cartesian axes

     site n.     atom                  positions (alat units)
         1           Si  tau(   1) = (   0.4999898  -0.8631569   0.0000000  )
         2           Si  tau(   2) = (   0.4999898   0.2915762   0.0000000  )

   Crystallographic axes

     site n.     atom                  positions (cryst. coord.)
         1           Si  tau(   1) = (  0.9983405  0.0016595  0.0000000  )
         2           Si  tau(   2) = (  0.3316595  0.6683405  0.0000000  )

     number of k points=    31  Marzari-Vanderbilt smearing, width (Ry)=  0.0147
                       cart. coord. in units 2pi/alat
        k(    1) = (   0.0000000   0.0000000   0.0000000), wk =   0.0200000
        k(    2) = (   0.1000020   0.0577346   0.0000000), wk =   0.0800000
        k(    3) = (   0.2000041   0.1154693   0.0000000), wk =   0.0800000
        k(    4) = (   0.3000061   0.1732039   0.0000000), wk =   0.0800000
        k(    5) = (   0.4000081   0.2309385   0.0000000), wk =   0.0800000
        k(    6) = (  -0.5000102  -0.2886732   0.0000000), wk =   0.0400000
        k(    7) = (   0.2000041   0.0000000   0.0000000), wk =   0.0400000
        k(    8) = (   0.3000061   0.0577346   0.0000000), wk =   0.0800000
        k(    9) = (   0.4000081   0.1154693   0.0000000), wk =   0.0800000
        k(   10) = (   0.5000102   0.1732039   0.0000000), wk =   0.0800000
        k(   11) = (  -0.4000081  -0.3464078   0.0000000), wk =   0.0800000
        k(   12) = (  -0.3000061  -0.2886732   0.0000000), wk =   0.0800000
        k(   13) = (  -0.2000041  -0.2309385   0.0000000), wk =   0.0800000
        k(   14) = (  -0.1000020  -0.1732039   0.0000000), wk =   0.0800000
        k(   15) = (   0.0000000  -0.1154693   0.0000000), wk =   0.0400000
        k(   16) = (   0.4000081   0.0000000   0.0000000), wk =   0.0400000
        k(   17) = (   0.5000102   0.0577346   0.0000000), wk =   0.0800000
        k(   18) = (   0.6000122   0.1154693   0.0000000), wk =   0.0800000
        k(   19) = (  -0.3000061  -0.4041424   0.0000000), wk =   0.0800000
        k(   20) = (  -0.2000041  -0.3464078   0.0000000), wk =   0.0800000
        k(   21) = (  -0.1000020  -0.2886732   0.0000000), wk =   0.0800000
        k(   22) = (   0.0000000  -0.2309385   0.0000000), wk =   0.0400000
        k(   23) = (   0.6000122   0.0000000   0.0000000), wk =   0.0400000
        k(   24) = (   0.7000142   0.0577346   0.0000000), wk =   0.0800000
        k(   25) = (  -0.2000041  -0.4618771   0.0000000), wk =   0.0800000
        k(   26) = (  -0.1000020  -0.4041424   0.0000000), wk =   0.0800000
        k(   27) = (  -0.0000000  -0.3464078   0.0000000), wk =   0.0400000
        k(   28) = (   0.8000163   0.0000000   0.0000000), wk =   0.0400000
        k(   29) = (  -0.1000020  -0.5196117   0.0000000), wk =   0.0800000
        k(   30) = (   0.0000000  -0.4618771   0.0000000), wk =   0.0400000
        k(   31) = (  -1.0000203   0.0000000   0.0000000), wk =   0.0200000

                       cryst. coord.
        k(    1) = (   0.0000000   0.0000000   0.0000000), wk =   0.0200000
        k(    2) = (  -0.0000000   0.1000000   0.0000000), wk =   0.0800000
        k(    3) = (  -0.0000000   0.2000000   0.0000000), wk =   0.0800000
        k(    4) = (  -0.0000000   0.3000000   0.0000000), wk =   0.0800000
        k(    5) = (  -0.0000000   0.4000000   0.0000000), wk =   0.0800000
        k(    6) = (   0.0000000  -0.5000000   0.0000000), wk =   0.0400000
        k(    7) = (   0.1000000   0.1000000   0.0000000), wk =   0.0400000
        k(    8) = (   0.1000000   0.2000000   0.0000000), wk =   0.0800000
        k(    9) = (   0.1000000   0.3000000   0.0000000), wk =   0.0800000
        k(   10) = (   0.1000000   0.4000000   0.0000000), wk =   0.0800000
        k(   11) = (   0.1000000  -0.5000000   0.0000000), wk =   0.0800000
        k(   12) = (   0.1000000  -0.4000000   0.0000000), wk =   0.0800000
        k(   13) = (   0.1000000  -0.3000000   0.0000000), wk =   0.0800000
        k(   14) = (   0.1000000  -0.2000000   0.0000000), wk =   0.0800000
        k(   15) = (   0.1000000  -0.1000000   0.0000000), wk =   0.0400000
        k(   16) = (   0.2000000   0.2000000   0.0000000), wk =   0.0400000
        k(   17) = (   0.2000000   0.3000000   0.0000000), wk =   0.0800000
        k(   18) = (   0.2000000   0.4000000   0.0000000), wk =   0.0800000
        k(   19) = (   0.2000000  -0.5000000   0.0000000), wk =   0.0800000
        k(   20) = (   0.2000000  -0.4000000   0.0000000), wk =   0.0800000
        k(   21) = (   0.2000000  -0.3000000   0.0000000), wk =   0.0800000
        k(   22) = (   0.2000000  -0.2000000   0.0000000), wk =   0.0400000
        k(   23) = (   0.3000000   0.3000000   0.0000000), wk =   0.0400000
        k(   24) = (   0.3000000   0.4000000   0.0000000), wk =   0.0800000
        k(   25) = (   0.3000000  -0.5000000   0.0000000), wk =   0.0800000
        k(   26) = (   0.3000000  -0.4000000   0.0000000), wk =   0.0800000
        k(   27) = (   0.3000000  -0.3000000   0.0000000), wk =   0.0400000
        k(   28) = (   0.4000000   0.4000000   0.0000000), wk =   0.0400000
        k(   29) = (   0.4000000  -0.5000000   0.0000000), wk =   0.0800000
        k(   30) = (   0.4000000  -0.4000000   0.0000000), wk =   0.0400000
        k(   31) = (  -0.5000000  -0.5000000   0.0000000), wk =   0.0200000

     Initial potential from superposition of free atoms

     starting charge    7.99888, renormalised to    8.00000

     negative rho (up, down):  2.826E-06 0.000E+00
     Starting wfcs are    8 randomized atomic wfcs

     Self-consistent Calculation

     iteration #  1     ecut=    50.00 Ry     beta= 0.40
     Davidson diagonalization with overlap
     ethr =  1.00E-02,  avg # of iterations =  4.3

     Threshold (ethr) on eigenvalues was too large:
     Diagonalizing with lowered threshold

     Davidson diagonalization with overlap
     ethr =  8.07E-04,  avg # of iterations =  1.8

     negative rho (up, down):  1.895E-06 0.000E+00

     total energy              =     -22.74441454 Ry
     Harris-Foulkes estimate   =     -22.76058653 Ry
     estimated scf accuracy    <       0.06352613 Ry

[...]

     total energy              =     -22.74299108 Ry
     Harris-Foulkes estimate   =     -22.74299108 Ry
     estimated scf accuracy    <          1.4E-09 Ry

     iteration #  9     ecut=    50.00 Ry     beta= 0.40
     Davidson diagonalization with overlap
     ethr =  1.80E-11,  avg # of iterations =  2.3

[...]

     End of self-consistent calculation

          k = 0.0000 0.0000 0.0000 (  6393 PWs)   bands (ev):

   -13.1131  -4.8189  -3.5566  -3.5557  -0.4362   0.8105   0.8110   1.3214

     occupation numbers
     1.0000   1.0000   1.0000   1.0000   0.0000   0.0000   0.0000   0.0000

[...]

          k =-0.5000-0.2887 0.0000 (  6370 PWs)   bands (ev):

[...]

          k = 0.0000-0.4619 0.0000 (  6384 PWs)   bands (ev):

[...]

          k =-1.0000 0.0000 0.0000 (  6370 PWs)   bands (ev):

   -10.9456  -9.2844  -4.8679  -2.7142  -1.1145  -1.0414   4.1204   4.6622

     occupation numbers
     1.0000   1.0000   1.0000   1.0001   0.0000   0.0000   0.0000   0.0000

     the Fermi energy is    -2.0076 ev

!    total energy              =     -22.74299108 Ry
     Harris-Foulkes estimate   =     -22.74299108 Ry
     estimated scf accuracy    <          6.8E-12 Ry

     The total energy is the sum of the following terms:

     one-electron contribution =     -38.15368773 Ry
     hartree contribution      =      20.27402414 Ry
     xc contribution           =     -12.16020346 Ry
     ewald contribution        =       7.29658248 Ry
     smearing contrib. (-TS)   =       0.00029349 Ry

     convergence has been achieved in   9 iterations

     negative rho (up, down):  2.049E-06 0.000E+00

     Forces acting on atoms (cartesian axes, Ry/au):

     atom    1 type  1   force =     0.00000000    0.00005866    0.00000000
     atom    2 type  1   force =     0.00000000   -0.00005866    0.00000000
     The non-local contrib.  to forces
     atom    1 type  1   force =     0.00000000    0.00003088    0.00000000
     atom    2 type  1   force =     0.00000000   -0.00003570    0.00000000
     The ionic contribution  to forces
     atom    1 type  1   force =    -0.00000000    0.00007594   -0.00000000
     atom    2 type  1   force =     0.00000000   -0.00007594   -0.00000000
     The local contribution  to forces
     atom    1 type  1   force =     0.00000000   -0.00004414    0.00000000
     atom    2 type  1   force =     0.00000000    0.00004886    0.00000000
     The core correction contribution to forces
     atom    1 type  1   force =     0.00000000   -0.00001270    0.00000000
     atom    2 type  1   force =    -0.00000000   -0.00000593    0.00000000
     The Hubbard contrib.    to forces
     atom    1 type  1   force =     0.00000000    0.00000000    0.00000000
     atom    2 type  1   force =     0.00000000    0.00000000    0.00000000
     The SCF correction term to forces
     atom    1 type  1   force =    -0.00000000   -0.00000067    0.00000000
     atom    2 type  1   force =     0.00000000    0.00000070    0.00000000

     Total force =     0.000083     Total SCF correction =     0.000001

     Computing stress (Cartesian axis) and pressure

     negative rho (up, down):  2.049E-06 0.000E+00
          total   stress  (Ry/bohr**3)                   (kbar)     P=    0.01
   0.00000007   0.00000000   0.00000000          0.01      0.00      0.00
   0.00000000   0.00000013   0.00000000          0.00      0.02      0.00
   0.00000000   0.00000000  -0.00000007          0.00      0.00     -0.01

     kinetic stress (kbar)    497.44     -0.00      0.00
                                0.00    497.41      0.00
                                0.00      0.00    627.79

     local   stress (kbar)  -6123.66     -0.00     -0.00
                               -0.00  -6123.81      0.00
                               -0.00      0.00   6345.94

     nonloc. stress (kbar)    428.73      0.00      0.00
                                0.00    428.76      0.00
                                0.00      0.00    365.40

     hartree stress (kbar)   2718.80      0.00      0.00
                                0.00   2718.81     -0.00
                                0.00     -0.00  -2644.37

     exc-cor stress (kbar)    753.94      0.00      0.00
                                0.00    753.94      0.00
                                0.00      0.00    745.29

     corecor stress (kbar)  -1001.11     -0.00      0.00
                               -0.00  -1001.11     -0.00
                                0.00      0.00   -993.46

     ewald   stress (kbar)   2725.87      0.00     -0.00
                                0.00   2726.02     -0.00
                               -0.00     -0.00  -4446.60

     hubbard stress (kbar)      0.00      0.00      0.00
                                0.00      0.00      0.00
                                0.00      0.00      0.00

     london  stress (kbar)      0.00      0.00      0.00
                                0.00      0.00      0.00
                                0.00      0.00      0.00

     DFT-D3  stress (kbar)      0.00      0.00      0.00
                                0.00      0.00      0.00
                                0.00      0.00      0.00

     XDM     stress (kbar)      0.00      0.00      0.00
                                0.00      0.00      0.00
                                0.00      0.00      0.00

     dft-nl  stress (kbar)      0.00      0.00      0.00
                                0.00      0.00      0.00
                                0.00      0.00      0.00

     TS-vdW  stress (kbar)      0.00      0.00      0.00
                                0.00      0.00      0.00
                                0.00      0.00      0.00

     Writing output data file silicene.save/

     General routines

     Parallel routines

   This run was terminated on:   0:51:17  23Sep2023

   JOB DONE.