     Program PWSCF v.6.4.1 starts on 22Sep2023 at 22:23:25

     Reading input from silicene_relax.in

     Current dimensions of program PWSCF are:
     Max number of different atomic species (ntypx) = 10
     Max number of k-points (npk) =  40000
     Max angular momentum in pseudopotentials (lmaxx) =  3
     Message from routine read_upf::
     Pseudo file Si.pbe-n-rrkjus_psl.1.0.0.UPF has been fixed on the fly.
To avoid this message in the future, permanently fix
 your pseudo files following these instructions:

     Subspace diagonalization in iterative solution of the eigenvalue problem:
     a serial algorithm will be used

     Message from routine setup:
     DEPRECATED: symmetry with ibrav=0, use correct ibrav instead

     bravais-lattice index     =            0
     lattice parameter (alat)  =       7.2375  a.u.
     unit-cell volume          =    1032.2806 (a.u.)^3
     number of atoms/cell      =            2
     number of atomic types    =            1
     number of electrons       =         8.00
     number of Kohn-Sham states=            8
     kinetic-energy cutoff     =      50.0000  Ry
     charge density cutoff     =     240.0000  Ry
     convergence threshold     =      4.0E-10
     mixing beta               =       0.4000
     number of iterations used =            8  plain     mixing
     Exchange-correlation      = PBE ( 1  4  3  4 0 0)
     nstep                     =           50

     celldm(1)=   7.237514  celldm(2)=   0.000000  celldm(3)=   0.000000
     celldm(4)=   0.000000  celldm(5)=   0.000000  celldm(6)=   0.000000

     crystal axes: (cart. coord. in units of alat)
               a(1) = (   0.502620  -0.864507   0.000000 )
               a(2) = (   0.502620   0.864507   0.000000 )
               a(3) = (   0.000000   0.000000   3.133218 )

     reciprocal axes: (cart. coord. in units 2 pi/alat)
               b(1) = (  0.994786 -0.578364  0.000000 )
               b(2) = (  0.994786  0.578364 -0.000000 )
               b(3) = ( -0.000000  0.000000  0.319161 )

     PseudoPot. # 1 for Si read from file:
     /home/meyn/q-e-qe-7.1/pseudo/Si.pbe-n-rrkjus_psl.1.0.0.UPF
     MD5 check sum: 56671f82560c68743c116fe4c72cdc4c
     Pseudo is Ultrasoft + core correction, Zval =  4.0
     Generated using "atomic" code by A. Dal Corso v.5.1.2
     Using radial grid of 1141 points,  6 beta functions with:
                l(1) =   0
                l(2) =   0
                l(3) =   1
                l(4) =   1
                l(5) =   2
                l(6) =   2
     Q(r) pseudized with 0 coefficients

     atomic species   valence    mass     pseudopotential
        Si             4.00    28.08550     Si( 1.00)

      4 Sym. Ops. (no inversion) found

                                    s                        frac. trans.

      isym =  1     identity

 cryst.   s( 1) = (     1          0          0      )
                  (     0          1          0      )
                  (     0          0          1      )

 cart.    s( 1) = (  1.0000000  0.0000000  0.0000000 )
                  (  0.0000000  1.0000000  0.0000000 )
                  (  0.0000000  0.0000000  1.0000000 )

      isym =  2     180 deg rotation - cart. axis [0,1,0]

[...]

      isym =  3     inv. 180 deg rotation - cart. axis [0,0,1]

[...]

   Cartesian axes

     site n.     atom                  positions (alat units)
         1           Si  tau(   1) = (   0.0000000   0.0000000   0.0000000  )
         2           Si  tau(   2) = (   0.5026205   0.2939324   0.0000000  )

   Crystallographic axes

     site n.     atom                  positions (cryst. coord.)
         1           Si  tau(   1) = (  0.0000000  0.0000000  0.0000000  )
         2           Si  tau(   2) = (  0.3300000  0.6700000  0.0000000  )

     number of k points=    31  Marzari-Vanderbilt smearing, width (Ry)=  0.0147
                       cart. coord. in units 2pi/alat
        k(    1) = (   0.0000000   0.0000000   0.0000000), wk =   0.0200000
        k(    2) = (   0.0994786   0.0578364   0.0000000), wk =   0.0800000
        k(    3) = (   0.1989573   0.1156728   0.0000000), wk =   0.0800000
        k(    4) = (   0.2984359   0.1735093   0.0000000), wk =   0.0800000
        k(    5) = (   0.3979146   0.2313457   0.0000000), wk =   0.0800000
        k(    6) = (  -0.4973932  -0.2891821   0.0000000), wk =   0.0400000
        k(    7) = (   0.1989573   0.0000000   0.0000000), wk =   0.0400000
        k(    8) = (   0.2984359   0.0578364   0.0000000), wk =   0.0800000
        k(    9) = (   0.3979146   0.1156728   0.0000000), wk =   0.0800000
        k(   10) = (   0.4973932   0.1735093   0.0000000), wk =   0.0800000
        k(   11) = (  -0.3979146  -0.3470185   0.0000000), wk =   0.0800000
        k(   12) = (  -0.2984359  -0.2891821   0.0000000), wk =   0.0800000
        k(   13) = (  -0.1989573  -0.2313457   0.0000000), wk =   0.0800000
        k(   14) = (  -0.0994786  -0.1735093   0.0000000), wk =   0.0800000
        k(   15) = (   0.0000000  -0.1156728   0.0000000), wk =   0.0400000
        k(   16) = (   0.3979146   0.0000000   0.0000000), wk =   0.0400000
        k(   17) = (   0.4973932   0.0578364   0.0000000), wk =   0.0800000
        k(   18) = (   0.5968718   0.1156728   0.0000000), wk =   0.0800000
        k(   19) = (  -0.2984359  -0.4048549   0.0000000), wk =   0.0800000
        k(   20) = (  -0.1989573  -0.3470185   0.0000000), wk =   0.0800000
        k(   21) = (  -0.0994786  -0.2891821   0.0000000), wk =   0.0800000
        k(   22) = (   0.0000000  -0.2313457   0.0000000), wk =   0.0400000
        k(   23) = (   0.5968718   0.0000000   0.0000000), wk =   0.0400000
        k(   24) = (   0.6963505   0.0578364   0.0000000), wk =   0.0800000
        k(   25) = (  -0.1989573  -0.4626914   0.0000000), wk =   0.0800000
        k(   26) = (  -0.0994786  -0.4048549   0.0000000), wk =   0.0800000
        k(   27) = (  -0.0000000  -0.3470185   0.0000000), wk =   0.0400000
        k(   28) = (   0.7958291   0.0000000   0.0000000), wk =   0.0400000
        k(   29) = (  -0.0994786  -0.5205278   0.0000000), wk =   0.0800000
        k(   30) = (   0.0000000  -0.4626914   0.0000000), wk =   0.0400000
        k(   31) = (  -0.9947864   0.0000000   0.0000000), wk =   0.0200000

                       cryst. coord.
        k(    1) = (   0.0000000   0.0000000   0.0000000), wk =   0.0200000
        k(    2) = (   0.0000000   0.1000000   0.0000000), wk =   0.0800000
        k(    3) = (   0.0000000   0.2000000   0.0000000), wk =   0.0800000
        k(    4) = (   0.0000000   0.3000000   0.0000000), wk =   0.0800000
        k(    5) = (   0.0000000   0.4000000   0.0000000), wk =   0.0800000
        k(    6) = (   0.0000000  -0.5000000   0.0000000), wk =   0.0400000
        k(    7) = (   0.1000000   0.1000000   0.0000000), wk =   0.0400000
        k(    8) = (   0.1000000   0.2000000   0.0000000), wk =   0.0800000
        k(    9) = (   0.1000000   0.3000000   0.0000000), wk =   0.0800000
        k(   10) = (   0.1000000   0.4000000   0.0000000), wk =   0.0800000
        k(   11) = (   0.1000000  -0.5000000   0.0000000), wk =   0.0800000
        k(   12) = (   0.1000000  -0.4000000   0.0000000), wk =   0.0800000
        k(   13) = (   0.1000000  -0.3000000   0.0000000), wk =   0.0800000
        k(   14) = (   0.1000000  -0.2000000   0.0000000), wk =   0.0800000
        k(   15) = (   0.1000000  -0.1000000   0.0000000), wk =   0.0400000
        k(   16) = (   0.2000000   0.2000000   0.0000000), wk =   0.0400000
        k(   17) = (   0.2000000   0.3000000   0.0000000), wk =   0.0800000
        k(   18) = (   0.2000000   0.4000000   0.0000000), wk =   0.0800000
        k(   19) = (   0.2000000  -0.5000000   0.0000000), wk =   0.0800000
        k(   20) = (   0.2000000  -0.4000000   0.0000000), wk =   0.0800000
        k(   21) = (   0.2000000  -0.3000000   0.0000000), wk =   0.0800000
        k(   22) = (   0.2000000  -0.2000000   0.0000000), wk =   0.0400000
        k(   23) = (   0.3000000   0.3000000   0.0000000), wk =   0.0400000
        k(   24) = (   0.3000000   0.4000000   0.0000000), wk =   0.0800000
        k(   25) = (   0.3000000  -0.5000000   0.0000000), wk =   0.0800000
        k(   26) = (   0.3000000  -0.4000000   0.0000000), wk =   0.0800000
        k(   27) = (   0.3000000  -0.3000000   0.0000000), wk =   0.0400000
        k(   28) = (   0.4000000   0.4000000   0.0000000), wk =   0.0400000
        k(   29) = (   0.4000000  -0.5000000   0.0000000), wk =   0.0800000
        k(   30) = (   0.4000000  -0.4000000   0.0000000), wk =   0.0400000
        k(   31) = (  -0.5000000  -0.5000000   0.0000000), wk =   0.0200000

     Initial potential from superposition of free atoms

     starting charge    7.99888, renormalised to    8.00000

     negative rho (up, down):  3.014E-06 0.000E+00
     Starting wfcs are    8 randomized atomic wfcs

     Self-consistent Calculation

     iteration #  1     ecut=    50.00 Ry     beta= 0.40
     Davidson diagonalization with overlap
     ethr =  1.00E-02,  avg # of iterations =  4.7

     Threshold (ethr) on eigenvalues was too large:
     Diagonalizing with lowered threshold

     Davidson diagonalization with overlap
     ethr =  9.18E-04,  avg # of iterations =  1.4

     negative rho (up, down):  1.976E-06 0.000E+00

     total energy              =     -22.74168547 Ry
     Harris-Foulkes estimate   =     -22.76155133 Ry
     estimated scf accuracy    <       0.07237192 Ry

[...]

     End of self-consistent calculation

          k = 0.0000 0.0000 0.0000 (  6153 PWs)   bands (ev):

   -13.2226  -4.8634  -3.4923  -3.3429   0.1595   0.8456   1.1130   1.3578

     occupation numbers
     1.0000   1.0000   1.0000   1.0000   0.0000   0.0000   0.0000   0.0000

[...]

          k =-0.4974-0.2892 0.0000 (  6178 PWs)   bands (ev):

[...]

     the Fermi energy is    -1.9284 ev

!    total energy              =     -22.74025304 Ry
     Harris-Foulkes estimate   =     -22.74025304 Ry
     estimated scf accuracy    <          4.4E-11 Ry

     The total energy is the sum of the following terms:

     one-electron contribution =     -39.49723014 Ry
     hartree contribution      =      20.98688509 Ry
     xc contribution           =     -12.21478195 Ry
     ewald contribution        =       7.98458886 Ry
     smearing contrib. (-TS)   =       0.00028510 Ry

     convergence has been achieved in   9 iterations

[...]

     Forces acting on atoms (cartesian axes, Ry/au):

     atom    1 type  1   force =     0.00000000    0.02202508    0.00000000
     atom    2 type  1   force =     0.00000000   -0.02202508    0.00000000
     The non-local contrib.  to forces
     atom    1 type  1   force =     0.00000000    0.02352442    0.00000000
     atom    2 type  1   force =     0.00000000   -0.02356749    0.00000000
     The ionic contribution  to forces
     atom    1 type  1   force =    -0.00000000    0.06637603   -0.00000000
     atom    2 type  1   force =     0.00000000   -0.06637603   -0.00000000
     The local contribution  to forces
     atom    1 type  1   force =     0.00000000   -0.06512866    0.00000000
[...]

     new unit-cell volume =   1038.83886 a.u.^3 (   153.94004 Ang^3 )
     density =      0.60591 g/cm^3

CELL_PARAMETERS (angstrom)
   1.929198609  -3.324790531   0.000000000
   1.929198609   3.324790531   0.000000000
   0.000000000   0.000000000  11.999975437

ATOMIC_POSITIONS (crystal)
Si      -0.001760068   0.001760068   0.000000000
Si       0.331760068   0.668239932   0.000000000

     Writing output data file silicene.save/
     NEW-OLD atomic charge density approx. for the potential

     negative rho (up, down):  1.424E-06 0.000E+00
     extrapolated charge    8.05050, renormalised to    8.00000

[...]

     enthalpy old            =     -22.7402530431 Ry
     enthalpy new            =     -22.7415639536 Ry

     CASE: enthalpy_new < enthalpy_old

[...]

     number of scf cycles    =  11
     number of bfgs steps    =  10

     enthalpy old            =     -22.7429913016 Ry
     enthalpy new            =     -22.7429919445 Ry

     CASE: enthalpy_new < enthalpy_old

     new trust radius        =       0.0004573061 bohr
WARNING! With ibrav=0, cell_dofree='ibrav' does not have any effect.
     new conv_thr            =            4.0E-12 Ry

     new unit-cell volume =   1067.72523 a.u.^3 (   158.22055 Ang^3 )
     density =      0.58952 g/cm^3

[...]

ATOMIC_POSITIONS (crystal)
Si      -0.001659533   0.001659533  -0.000000000
Si       0.331659533   0.668340467   0.000000000

     Writing output data file silicene.save/
     NEW-OLD atomic charge density approx. for the potential

     negative rho (up, down):  1.421E-06 0.000E+00
     extrapolated charge    8.00062, renormalised to    8.00000

[...]

     Threshold (ethr) on eigenvalues was too large:
     Diagonalizing with lowered threshold

     Davidson diagonalization with overlap
     ethr =  4.75E-10,  avg # of iterations =  2.1

[...]

WARNING! With ibrav=0, cell_dofree='ibrav' does not have any effect.

     bfgs converged in  12 scf cycles and  11 bfgs steps
     (criteria: energy <  2.0E-05 Ry, force <  1.0E-04Ry/Bohr, cell <  5.0E-01kbar)

     End of BFGS Geometry Optimization

     Final enthalpy =     -22.7429920031 Ry
Begin final coordinates
     new unit-cell volume =   1067.72523 a.u.^3 (   158.22055 Ang^3 )
     density =      0.58952 g/cm^3

CELL_PARAMETERS (angstrom)
   1.950975878  -3.379280995  -0.000000000
   1.950975878   3.379280995   0.000000000
  -0.000000000   0.000000000  11.999321667

ATOMIC_POSITIONS (crystal)
Si      -0.001659533   0.001659533  -0.000000000
Si       0.331659533   0.668340467   0.000000000
End final coordinates

     Writing output data file silicene.save/

     A final scf calculation at the relaxed structure.
     The G-vectors are recalculated for the final unit cell
     Results may differ from those at the preceding step.

     bravais-lattice index     =            0
     lattice parameter (alat)  =       7.2375  a.u.
     unit-cell volume          =    1067.7252 (a.u.)^3
     number of atoms/cell      =            2
     number of atomic types    =            1
     number of electrons       =         8.00
     number of Kohn-Sham states=            8
     kinetic-energy cutoff     =      50.0000  Ry
     charge density cutoff     =     240.0000  Ry
     convergence threshold     =      4.0E-12
     mixing beta               =       0.4000
     number of iterations used =            8  plain     mixing
     Exchange-correlation      = PBE ( 1  4  3  4 0 0)

     celldm(1)=   7.237514  celldm(2)=   0.000000  celldm(3)=   0.000000
     celldm(4)=   0.000000  celldm(5)=   0.000000  celldm(6)=   0.000000

     crystal axes: (cart. coord. in units of alat)
               a(1) = (   0.509403  -0.882335  -0.000000 )
               a(2) = (   0.509403   0.882335   0.000000 )
               a(3) = (  -0.000000   0.000000   3.133041 )

     reciprocal axes: (cart. coord. in units 2 pi/alat)
               b(1) = (  0.981542 -0.566678  0.000000 )
               b(2) = (  0.981542  0.566678  0.000000 )
               b(3) = (  0.000000 -0.000000  0.319179 )

     PseudoPot. # 1 for Si read from file:
     /home/meyn/q-e-qe-7.1/pseudo/Si.pbe-n-rrkjus_psl.1.0.0.UPF
     MD5 check sum: 56671f82560c68743c116fe4c72cdc4c
     Pseudo is Ultrasoft + core correction, Zval =  4.0
     Generated using "atomic" code by A. Dal Corso v.5.1.2
     Using radial grid of 1141 points,  6 beta functions with:
                l(1) =   0
                l(2) =   0
                l(3) =   1
                l(4) =   1
                l(5) =   2
                l(6) =   2
     Q(r) pseudized with 0 coefficients

     atomic species   valence    mass     pseudopotential
        Si             4.00    28.08550     Si( 1.00)

      4 Sym. Ops. (no inversion) found

                                    s                        frac. trans.

      isym =  1     identity

[...]

      isym =  2     180 deg rotation - cart. axis [0,1,0]

[...]

      isym =  4     inv. 180 deg rotation - cart. axis [1,0,0]

 cryst.   s( 4) = (     0         -1          0      )
                  (    -1          0          0      )
                  (     0          0          1      )

 cart.    s( 4) = ( -1.0000000  0.0000000  0.0000000 )
                  (  0.0000000  1.0000000  0.0000000 )
                  (  0.0000000  0.0000000  1.0000000 )

   Cartesian axes

     site n.     atom                  positions (alat units)
         1           Si  tau(   1) = (   0.0000000   0.0029285   0.0000000  )
         2           Si  tau(   2) = (   0.5094028   0.2970655  -0.0000000  )

   Crystallographic axes

     site n.     atom                  positions (cryst. coord.)
         1           Si  tau(   1) = ( -0.0016595  0.0016595 -0.0000000  )
         2           Si  tau(   2) = (  0.3316595  0.6683405  0.0000000  )

     number of k points=    31  Marzari-Vanderbilt smearing, width (Ry)=  0.0147
                       cart. coord. in units 2pi/alat
        k(    1) = (   0.0000000   0.0000000   0.0000000), wk =   0.0200000
        k(    2) = (   0.0981542   0.0566678   0.0000000), wk =   0.0800000
        k(    3) = (   0.1963083   0.1133356   0.0000000), wk =   0.0800000
        k(    4) = (   0.2944625   0.1700034   0.0000000), wk =   0.0800000
        k(    5) = (   0.3926166   0.2266712   0.0000000), wk =   0.0800000
        k(    6) = (  -0.4907708  -0.2833389  -0.0000000), wk =   0.0400000
        k(    7) = (   0.1963083  -0.0000000   0.0000000), wk =   0.0400000
        k(    8) = (   0.2944625   0.0566678   0.0000000), wk =   0.0800000
        k(    9) = (   0.3926166   0.1133356   0.0000000), wk =   0.0800000
        k(   10) = (   0.4907708   0.1700034   0.0000000), wk =   0.0800000
        k(   11) = (  -0.3926166  -0.3400067  -0.0000000), wk =   0.0800000
        k(   12) = (  -0.2944625  -0.2833389  -0.0000000), wk =   0.0800000
        k(   13) = (  -0.1963083  -0.2266712  -0.0000000), wk =   0.0800000
        k(   14) = (  -0.0981542  -0.1700034  -0.0000000), wk =   0.0800000
        k(   15) = (   0.0000000  -0.1133356   0.0000000), wk =   0.0400000
        k(   16) = (   0.3926166  -0.0000000   0.0000000), wk =   0.0400000
        k(   17) = (   0.4907708   0.0566678   0.0000000), wk =   0.0800000
        k(   18) = (   0.5889249   0.1133356   0.0000000), wk =   0.0800000
        k(   19) = (  -0.2944625  -0.3966745  -0.0000000), wk =   0.0800000
        k(   20) = (  -0.1963083  -0.3400067  -0.0000000), wk =   0.0800000
        k(   21) = (  -0.0981542  -0.2833389  -0.0000000), wk =   0.0800000
        k(   22) = (   0.0000000  -0.2266712   0.0000000), wk =   0.0400000
        k(   23) = (   0.5889249  -0.0000000   0.0000000), wk =   0.0400000
        k(   24) = (   0.6870791   0.0566678   0.0000000), wk =   0.0800000
        k(   25) = (  -0.1963083  -0.4533423  -0.0000000), wk =   0.0800000
        k(   26) = (  -0.0981542  -0.3966745  -0.0000000), wk =   0.0800000
        k(   27) = (  -0.0000000  -0.3400067   0.0000000), wk =   0.0400000
        k(   28) = (   0.7852332  -0.0000000   0.0000000), wk =   0.0400000
        k(   29) = (  -0.0981542  -0.5100101  -0.0000000), wk =   0.0800000
        k(   30) = (  -0.0000000  -0.4533423   0.0000000), wk =   0.0400000
        k(   31) = (  -0.9815415   0.0000000  -0.0000000), wk =   0.0200000

                       cryst. coord.
        k(    1) = (   0.0000000   0.0000000   0.0000000), wk =   0.0200000
        k(    2) = (   0.0000000   0.1000000   0.0000000), wk =   0.0800000
        k(    3) = (   0.0000000   0.2000000   0.0000000), wk =   0.0800000
        k(    4) = (   0.0000000   0.3000000   0.0000000), wk =   0.0800000
        k(    5) = (   0.0000000   0.4000000   0.0000000), wk =   0.0800000
        k(    6) = (  -0.0000000  -0.5000000  -0.0000000), wk =   0.0400000
        k(    7) = (   0.1000000   0.1000000  -0.0000000), wk =   0.0400000
        k(    8) = (   0.1000000   0.2000000  -0.0000000), wk =   0.0800000
        k(    9) = (   0.1000000   0.3000000   0.0000000), wk =   0.0800000
        k(   10) = (   0.1000000   0.4000000   0.0000000), wk =   0.0800000
        k(   11) = (   0.1000000  -0.5000000  -0.0000000), wk =   0.0800000
        k(   12) = (   0.1000000  -0.4000000  -0.0000000), wk =   0.0800000
        k(   13) = (   0.1000000  -0.3000000   0.0000000), wk =   0.0800000
        k(   14) = (   0.1000000  -0.2000000  -0.0000000), wk =   0.0800000
        k(   15) = (   0.1000000  -0.1000000  -0.0000000), wk =   0.0400000
        k(   16) = (   0.2000000   0.2000000  -0.0000000), wk =   0.0400000
        k(   17) = (   0.2000000   0.3000000   0.0000000), wk =   0.0800000
        k(   18) = (   0.2000000   0.4000000  -0.0000000), wk =   0.0800000
        k(   19) = (   0.2000000  -0.5000000  -0.0000000), wk =   0.0800000
        k(   20) = (   0.2000000  -0.4000000  -0.0000000), wk =   0.0800000
        k(   21) = (   0.2000000  -0.3000000  -0.0000000), wk =   0.0800000
        k(   22) = (   0.2000000  -0.2000000  -0.0000000), wk =   0.0400000
        k(   23) = (   0.3000000   0.3000000   0.0000000), wk =   0.0400000
        k(   24) = (   0.3000000   0.4000000   0.0000000), wk =   0.0800000
        k(   25) = (   0.3000000  -0.5000000  -0.0000000), wk =   0.0800000
        k(   26) = (   0.3000000  -0.4000000   0.0000000), wk =   0.0800000
        k(   27) = (   0.3000000  -0.3000000   0.0000000), wk =   0.0400000
        k(   28) = (   0.4000000   0.4000000  -0.0000000), wk =   0.0400000
        k(   29) = (   0.4000000  -0.5000000  -0.0000000), wk =   0.0800000
        k(   30) = (   0.4000000  -0.4000000  -0.0000000), wk =   0.0400000
        k(   31) = (  -0.5000000  -0.5000000  -0.0000000), wk =   0.0200000

     Initial potential from superposition of free atoms

     starting charge    7.99888, renormalised to    8.00000

     negative rho (up, down):  2.826E-06 0.000E+00
     Starting wfcs are    8 randomized atomic wfcs

     Self-consistent Calculation

     iteration #  1     ecut=    50.00 Ry     beta= 0.40
     Davidson diagonalization with overlap
     c_bands:  1 eigenvalues not converged
     c_bands:  1 eigenvalues not converged
     c_bands:  1 eigenvalues not converged
     c_bands:  1 eigenvalues not converged
     ethr =  1.00E-06,  avg # of iterations = 16.3

[...]

     total energy              =     -22.74299108 Ry
     Harris-Foulkes estimate   =     -22.74299108 Ry
     estimated scf accuracy    <          5.7E-12 Ry

     iteration # 13     ecut=    50.00 Ry     beta= 0.40
     Davidson diagonalization with overlap
     ethr =  1.00E-13,  avg # of iterations =  2.0

[...]

     End of self-consistent calculation

[...]

          k = 0.7852-0.0000 0.0000 (  6366 PWs)   bands (ev):

[...]

          k =-0.9815 0.0000-0.0000 (  6370 PWs)   bands (ev):

   -10.9456  -9.2844  -4.8679  -2.7142  -1.1145  -1.0415   4.1204   4.6621

     occupation numbers
     1.0000   1.0000   1.0000   1.0001   0.0000   0.0000   0.0000   0.0000

     the Fermi energy is    -2.0076 ev

!    total energy              =     -22.74299108 Ry
     Harris-Foulkes estimate   =     -22.74299108 Ry
     estimated scf accuracy    <          1.2E-13 Ry

     The total energy is the sum of the following terms:

     one-electron contribution =     -38.15368954 Ry
     hartree contribution      =      20.27402618 Ry
     xc contribution           =     -12.16020368 Ry
     ewald contribution        =       7.29658247 Ry
     smearing contrib. (-TS)   =       0.00029349 Ry

     convergence has been achieved in  13 iterations

     negative rho (up, down):  2.049E-06 0.000E+00

     Forces acting on atoms (cartesian axes, Ry/au):

     atom    1 type  1   force =     0.00000000    0.00005850   -0.00000000
     atom    2 type  1   force =     0.00000000   -0.00005850    0.00000000
     The non-local contrib.  to forces
     atom    1 type  1   force =     0.00000000    0.00003120   -0.00000000
     atom    2 type  1   force =     0.00000000   -0.00003603    0.00000000
     The ionic contribution  to forces
     atom    1 type  1   force =    -0.00000000    0.00007595    0.00000000
     atom    2 type  1   force =     0.00000000   -0.00007595   -0.00000000
     The local contribution  to forces
     atom    1 type  1   force =    -0.00000000   -0.00004524    0.00000000
     atom    2 type  1   force =     0.00000000    0.00005001    0.00000000
     The core correction contribution to forces
     atom    1 type  1   force =    -0.00000000   -0.00001275    0.00000000
     atom    2 type  1   force =    -0.00000000   -0.00000588    0.00000000
     The Hubbard contrib.    to forces
     atom    1 type  1   force =     0.00000000    0.00000000    0.00000000
     atom    2 type  1   force =     0.00000000    0.00000000    0.00000000
     The SCF correction term to forces
     atom    1 type  1   force =    -0.00000000   -0.00000000   -0.00000000
     atom    2 type  1   force =     0.00000000    0.00000000   -0.00000000

     Total force =     0.000083     Total SCF correction =     0.000000

     Computing stress (Cartesian axis) and pressure

     negative rho (up, down):  2.049E-06 0.000E+00
          total   stress  (Ry/bohr**3)                   (kbar)     P=    0.01
   0.00000007  -0.00000000   0.00000000          0.01     -0.00      0.00
  -0.00000000   0.00000013   0.00000000         -0.00      0.02      0.00
   0.00000000   0.00000000  -0.00000006          0.00      0.00     -0.01

     kinetic stress (kbar)    497.44     -0.00      0.00
                               -0.00    497.41     -0.00
                                0.00     -0.00    627.79

     local   stress (kbar)  -6123.66     -0.00     -0.00
                               -0.00  -6123.81     -0.00
                               -0.00     -0.00   6345.94

     nonloc. stress (kbar)    428.73     -0.00      0.00
                               -0.00    428.76     -0.00
                                0.00     -0.00    365.40

     hartree stress (kbar)   2718.80      0.00     -0.00
                                0.00   2718.81      0.00
                               -0.00      0.00  -2644.37

     exc-cor stress (kbar)    753.94      0.00      0.00
                                0.00    753.94     -0.00
                                0.00     -0.00    745.29

     corecor stress (kbar)  -1001.11     -0.00      0.00
                               -0.00  -1001.11     -0.00
                                0.00     -0.00   -993.46

     ewald   stress (kbar)   2725.87      0.00     -0.00
                                0.00   2726.02     -0.00
                               -0.00     -0.00  -4446.60

     hubbard stress (kbar)      0.00      0.00      0.00
                                0.00      0.00      0.00
                                0.00      0.00      0.00

     london  stress (kbar)      0.00      0.00      0.00
                                0.00      0.00      0.00
                                0.00      0.00      0.00

     DFT-D3  stress (kbar)      0.00      0.00      0.00
                                0.00      0.00      0.00
                                0.00      0.00      0.00

     XDM     stress (kbar)      0.00      0.00      0.00
                                0.00      0.00      0.00
                                0.00      0.00      0.00

     dft-nl  stress (kbar)      0.00      0.00      0.00
                                0.00      0.00      0.00
                                0.00      0.00      0.00

     TS-vdW  stress (kbar)      0.00      0.00      0.00
                                0.00      0.00      0.00
                                0.00      0.00      0.00

     Writing output data file silicene.save/

     General routines

     Parallel routines

   This run was terminated on:  22:35:42  22Sep2023

   JOB DONE.