     Program PWSCF v.6.4.1 starts on 22Sep2023 at 21:44:32

     Reading input from silicene_scf_kpoints-2.in

     Current dimensions of program PWSCF are:
     Max number of different atomic species (ntypx) = 10
     Max number of k-points (npk) =  40000
     Max angular momentum in pseudopotentials (lmaxx) =  3
     Message from routine read_upf::
     Pseudo file Si.pbe-n-rrkjus_psl.1.0.0.UPF has been fixed on the fly.
To avoid this message in the future, permanently fix
 your pseudo files following these instructions:

     Subspace diagonalization in iterative solution of the eigenvalue problem:
     a serial algorithm will be used

     Message from routine setup:
     DEPRECATED: symmetry with ibrav=0, use correct ibrav instead

     bravais-lattice index     =            0
     lattice parameter (alat)  =       7.2375  a.u.
     unit-cell volume          =    1032.2806 (a.u.)^3
     number of atoms/cell      =            2
     number of atomic types    =            1
     number of electrons       =         8.00
     number of Kohn-Sham states=            8
     kinetic-energy cutoff     =      30.0000  Ry
     charge density cutoff     =     240.0000  Ry
     convergence threshold     =      4.0E-10
     mixing beta               =       0.4000
     number of iterations used =            8  plain     mixing
     Exchange-correlation      = PBE ( 1  4  3  4 0 0)

     celldm(1)=   7.237514  celldm(2)=   0.000000  celldm(3)=   0.000000
     celldm(4)=   0.000000  celldm(5)=   0.000000  celldm(6)=   0.000000

     crystal axes: (cart. coord. in units of alat)
               a(1) = (   0.502620  -0.864507   0.000000 )
               a(2) = (   0.502620   0.864507   0.000000 )
               a(3) = (   0.000000   0.000000   3.133218 )

     reciprocal axes: (cart. coord. in units 2 pi/alat)
               b(1) = (  0.994786 -0.578364  0.000000 )
               b(2) = (  0.994786  0.578364 -0.000000 )
               b(3) = ( -0.000000  0.000000  0.319161 )

     PseudoPot. # 1 for Si read from file:
     /home/meyn/q-e-qe-7.1/pseudo/Si.pbe-n-rrkjus_psl.1.0.0.UPF
     MD5 check sum: 56671f82560c68743c116fe4c72cdc4c
     Pseudo is Ultrasoft + core correction, Zval =  4.0
     Generated using "atomic" code by A. Dal Corso v.5.1.2
     Using radial grid of 1141 points,  6 beta functions with:
                l(1) =   0
                l(2) =   0
                l(3) =   1
                l(4) =   1
                l(5) =   2
                l(6) =   2
     Q(r) pseudized with 0 coefficients

     atomic species   valence    mass     pseudopotential
        Si             4.00    28.08550     Si( 1.00)

      4 Sym. Ops. (no inversion) found

                                    s                        frac. trans.

      isym =  1     identity

 cryst.   s( 1) = (     1          0          0      )
                  (     0          1          0      )
                  (     0          0          1      )

 cart.    s( 1) = (  1.0000000  0.0000000  0.0000000 )
                  (  0.0000000  1.0000000  0.0000000 )
                  (  0.0000000  0.0000000  1.0000000 )

      isym =  2     180 deg rotation - cart. axis [0,1,0]

[...]

      isym =  3     inv. 180 deg rotation - cart. axis [0,0,1]

[...]

      isym =  4     inv. 180 deg rotation - cart. axis [1,0,0]

 cryst.   s( 4) = (     0         -1          0      )
                  (    -1          0          0      )
                  (     0          0          1      )

 cart.    s( 4) = ( -1.0000000  0.0000000  0.0000000 )
                  (  0.0000000  1.0000000  0.0000000 )
                  (  0.0000000  0.0000000  1.0000000 )

   Cartesian axes

     site n.     atom                  positions (alat units)
         1           Si  tau(   1) = (   0.0000000   0.0000000   0.0000000  )
         2           Si  tau(   2) = (   0.5026205   0.2939324   0.0000000  )

   Crystallographic axes

     site n.     atom                  positions (cryst. coord.)
         1           Si  tau(   1) = (  0.0000000  0.0000000  0.0000000  )
         2           Si  tau(   2) = (  0.3300000  0.6700000  0.0000000  )

     number of k points=     3  Marzari-Vanderbilt smearing, width (Ry)=  0.0147
                       cart. coord. in units 2pi/alat
        k(    1) = (   0.0000000   0.0000000   0.0000000), wk =   0.5000000
        k(    2) = (  -0.4973932  -0.2891821   0.0000000), wk =   1.0000000
        k(    3) = (  -0.9947864   0.0000000   0.0000000), wk =   0.5000000

                       cryst. coord.
        k(    1) = (   0.0000000   0.0000000   0.0000000), wk =   0.5000000
        k(    2) = (   0.0000000  -0.5000000   0.0000000), wk =   1.0000000
        k(    3) = (  -0.5000000  -0.5000000   0.0000000), wk =   0.5000000

     Initial potential from superposition of free atoms

     starting charge    7.99888, renormalised to    8.00000

     negative rho (up, down):  3.014E-06 0.000E+00
     Starting wfcs are    8 randomized atomic wfcs

     Self-consistent Calculation

     iteration #  1     ecut=    30.00 Ry     beta= 0.40
     Davidson diagonalization with overlap
     ethr =  1.00E-02,  avg # of iterations =  5.0

     negative rho (up, down):  3.627E-07 0.000E+00

     total energy              =     -22.62077696 Ry
     Harris-Foulkes estimate   =     -22.65043220 Ry
     estimated scf accuracy    <       0.10896777 Ry

[...]

     total energy              =     -22.62057323 Ry
     Harris-Foulkes estimate   =     -22.62057322 Ry
     estimated scf accuracy    <          1.6E-09 Ry

     iteration # 10     ecut=    30.00 Ry     beta= 0.40
     Davidson diagonalization with overlap
     ethr =  2.00E-11,  avg # of iterations =  1.3

[...]

     End of self-consistent calculation

          k = 0.0000 0.0000 0.0000 (  2867 PWs)   bands (ev):

   -12.9909  -4.7185  -3.2120  -3.0808   0.3908   1.0167   1.2718   1.3798

     occupation numbers
     1.0000   1.0000   1.0000   1.0000   0.0000   0.0000   0.0000   0.0000

          k =-0.4974-0.2892 0.0000 (  2876 PWs)   bands (ev):

[...]

          k =-0.9948 0.0000 0.0000 (  2888 PWs)   bands (ev):

   -10.6264  -9.1510  -4.5543  -2.4393  -0.8835  -0.7506   4.3484   4.8602

     occupation numbers
     1.0000   1.0000   1.0000   0.8669   0.0000   0.0000   0.0000   0.0000

     the Fermi energy is    -2.3088 ev

!    total energy              =     -22.62057322 Ry
     Harris-Foulkes estimate   =     -22.62057323 Ry
     estimated scf accuracy    <          6.4E-11 Ry

     The total energy is the sum of the following terms:

     one-electron contribution =     -39.46861034 Ry
     hartree contribution      =      21.12728625 Ry
     xc contribution           =     -12.26588510 Ry
     ewald contribution        =       7.98458886 Ry
     smearing contrib. (-TS)   =       0.00204711 Ry

     convergence has been achieved in  10 iterations

     negative rho (up, down):  2.000E-06 0.000E+00

     Forces acting on atoms (cartesian axes, Ry/au):

     atom    1 type  1   force =     0.00000000    0.01917156    0.00000000
     atom    2 type  1   force =     0.00000000   -0.01917156    0.00000000
     The non-local contrib.  to forces
     atom    1 type  1   force =     0.00000000    0.02708468    0.00000000
     atom    2 type  1   force =     0.00000000   -0.02713369    0.00000000
     The ionic contribution  to forces
     atom    1 type  1   force =    -0.00000000    0.06637603   -0.00000000
     atom    2 type  1   force =     0.00000000   -0.06637603   -0.00000000
     The local contribution  to forces
     atom    1 type  1   force =     0.00000000   -0.07115450    0.00000000
     atom    2 type  1   force =     0.00000000    0.07116791    0.00000000
     The core correction contribution to forces
     atom    1 type  1   force =    -0.00000000   -0.00315362    0.00000000
     atom    2 type  1   force =    -0.00000000    0.00314444    0.00000000
     The Hubbard contrib.    to forces
     atom    1 type  1   force =     0.00000000    0.00000000    0.00000000
     atom    2 type  1   force =     0.00000000    0.00000000    0.00000000
     The SCF correction term to forces
     atom    1 type  1   force =    -0.00000000   -0.00000361    0.00000000
     atom    2 type  1   force =    -0.00000000    0.00000324    0.00000000

     Total force =     0.027113     Total SCF correction =     0.000005

     Computing stress (Cartesian axis) and pressure

     negative rho (up, down):  2.000E-06 0.000E+00
          total   stress  (Ry/bohr**3)                   (kbar)     P=   23.35
   0.00021677   0.00000000   0.00000000         31.89      0.00      0.00
   0.00000000   0.00025986   0.00000000          0.00     38.23      0.00
   0.00000000   0.00000000  -0.00000038          0.00      0.00     -0.06

     kinetic stress (kbar)    567.18      0.00     -0.00
                                0.00    561.27     -0.00
                                0.00      0.00    659.67

     local   stress (kbar)  -6559.92     -0.00      0.00
                               -0.00  -6610.06     -0.00
                                0.00     -0.00   6837.76

     nonloc. stress (kbar)    439.12     -0.00     -0.00
                                0.00    446.41      0.00
                               -0.00      0.00    362.05

     hartree stress (kbar)   2922.77     -0.00      0.00
                               -0.00   2930.28      0.00
                                0.00      0.00  -2842.30

     exc-cor stress (kbar)    775.59      0.00      0.00
                                0.00    775.99     -0.00
                                0.00     -0.00    766.89

     corecor stress (kbar)  -1036.57     -0.00     -0.00
                               -0.00  -1037.51      0.00
                               -0.00      0.00  -1026.38

     ewald   stress (kbar)   2923.73      0.00     -0.00
                                0.00   2971.85     -0.00
                               -0.00     -0.00  -4757.74

     hubbard stress (kbar)      0.00      0.00      0.00
                                0.00      0.00      0.00
                                0.00      0.00      0.00

     london  stress (kbar)      0.00      0.00      0.00
                                0.00      0.00      0.00
                                0.00      0.00      0.00

     DFT-D3  stress (kbar)      0.00      0.00      0.00
                                0.00      0.00      0.00
                                0.00      0.00      0.00

     XDM     stress (kbar)      0.00      0.00      0.00
                                0.00      0.00      0.00
                                0.00      0.00      0.00

     dft-nl  stress (kbar)      0.00      0.00      0.00
                                0.00      0.00      0.00
                                0.00      0.00      0.00

     TS-vdW  stress (kbar)      0.00      0.00      0.00
                                0.00      0.00      0.00
                                0.00      0.00      0.00

     Writing output data file silicene.save/

     General routines

     Parallel routines

   This run was terminated on:  21:44:42  22Sep2023

   JOB DONE.