     Program PWSCF v.6.4.1 starts on 22Sep2023 at 21:45: 9

     Reading input from silicene_scf_kpoints-8.in

     Current dimensions of program PWSCF are:
     Max number of different atomic species (ntypx) = 10
     Max number of k-points (npk) =  40000
     Max angular momentum in pseudopotentials (lmaxx) =  3
     Message from routine read_upf::
     Pseudo file Si.pbe-n-rrkjus_psl.1.0.0.UPF has been fixed on the fly.
To avoid this message in the future, permanently fix
 your pseudo files following these instructions:

     Subspace diagonalization in iterative solution of the eigenvalue problem:
     a serial algorithm will be used

     Message from routine setup:
     DEPRECATED: symmetry with ibrav=0, use correct ibrav instead

     bravais-lattice index     =            0
     lattice parameter (alat)  =       7.2375  a.u.
     unit-cell volume          =    1032.2806 (a.u.)^3
     number of atoms/cell      =            2
     number of atomic types    =            1
     number of electrons       =         8.00
     number of Kohn-Sham states=            8
     kinetic-energy cutoff     =      30.0000  Ry
     charge density cutoff     =     240.0000  Ry
     convergence threshold     =      4.0E-10
     mixing beta               =       0.4000
     number of iterations used =            8  plain     mixing
     Exchange-correlation      = PBE ( 1  4  3  4 0 0)

     celldm(1)=   7.237514  celldm(2)=   0.000000  celldm(3)=   0.000000
     celldm(4)=   0.000000  celldm(5)=   0.000000  celldm(6)=   0.000000

     crystal axes: (cart. coord. in units of alat)
               a(1) = (   0.502620  -0.864507   0.000000 )
               a(2) = (   0.502620   0.864507   0.000000 )
               a(3) = (   0.000000   0.000000   3.133218 )

     reciprocal axes: (cart. coord. in units 2 pi/alat)
               b(1) = (  0.994786 -0.578364  0.000000 )
               b(2) = (  0.994786  0.578364 -0.000000 )
               b(3) = ( -0.000000  0.000000  0.319161 )

     PseudoPot. # 1 for Si read from file:
     /home/meyn/q-e-qe-7.1/pseudo/Si.pbe-n-rrkjus_psl.1.0.0.UPF
     MD5 check sum: 56671f82560c68743c116fe4c72cdc4c
     Pseudo is Ultrasoft + core correction, Zval =  4.0
     Generated using "atomic" code by A. Dal Corso v.5.1.2
     Using radial grid of 1141 points,  6 beta functions with:
                l(1) =   0
                l(2) =   0
                l(3) =   1
                l(4) =   1
                l(5) =   2
                l(6) =   2
     Q(r) pseudized with 0 coefficients

     atomic species   valence    mass     pseudopotential
        Si             4.00    28.08550     Si( 1.00)

      4 Sym. Ops. (no inversion) found

                                    s                        frac. trans.

      isym =  1     identity

 cryst.   s( 1) = (     1          0          0      )
                  (     0          1          0      )
                  (     0          0          1      )

 cart.    s( 1) = (  1.0000000  0.0000000  0.0000000 )
                  (  0.0000000  1.0000000  0.0000000 )
                  (  0.0000000  0.0000000  1.0000000 )

      isym =  2     180 deg rotation - cart. axis [0,1,0]

[...]

      isym =  3     inv. 180 deg rotation - cart. axis [0,0,1]

[...]

      isym =  4     inv. 180 deg rotation - cart. axis [1,0,0]

 cryst.   s( 4) = (     0         -1          0      )
                  (    -1          0          0      )
                  (     0          0          1      )

 cart.    s( 4) = ( -1.0000000  0.0000000  0.0000000 )
                  (  0.0000000  1.0000000  0.0000000 )
                  (  0.0000000  0.0000000  1.0000000 )

   Cartesian axes

     site n.     atom                  positions (alat units)
         1           Si  tau(   1) = (   0.0000000   0.0000000   0.0000000  )
         2           Si  tau(   2) = (   0.5026205   0.2939324   0.0000000  )

   Crystallographic axes

     site n.     atom                  positions (cryst. coord.)
         1           Si  tau(   1) = (  0.0000000  0.0000000  0.0000000  )
         2           Si  tau(   2) = (  0.3300000  0.6700000  0.0000000  )

     number of k points=    21  Marzari-Vanderbilt smearing, width (Ry)=  0.0147
                       cart. coord. in units 2pi/alat
        k(    1) = (   0.0000000   0.0000000   0.0000000), wk =   0.0312500
        k(    2) = (   0.1243483   0.0722955   0.0000000), wk =   0.1250000
        k(    3) = (   0.2486966   0.1445910   0.0000000), wk =   0.1250000
        k(    4) = (   0.3730449   0.2168866   0.0000000), wk =   0.1250000
        k(    5) = (  -0.4973932  -0.2891821   0.0000000), wk =   0.0625000
        k(    6) = (   0.2486966   0.0000000   0.0000000), wk =   0.0625000
        k(    7) = (   0.3730449   0.0722955   0.0000000), wk =   0.1250000
        k(    8) = (   0.4973932   0.1445910   0.0000000), wk =   0.1250000
        k(    9) = (  -0.3730449  -0.3614776   0.0000000), wk =   0.1250000
        k(   10) = (  -0.2486966  -0.2891821   0.0000000), wk =   0.1250000
        k(   11) = (  -0.1243483  -0.2168866   0.0000000), wk =   0.1250000
        k(   12) = (   0.0000000  -0.1445910   0.0000000), wk =   0.0625000
        k(   13) = (   0.4973932   0.0000000   0.0000000), wk =   0.0625000
        k(   14) = (   0.6217415   0.0722955   0.0000000), wk =   0.1250000
        k(   15) = (  -0.2486966  -0.4337731   0.0000000), wk =   0.1250000
        k(   16) = (  -0.1243483  -0.3614776   0.0000000), wk =   0.1250000
        k(   17) = (   0.0000000  -0.2891821   0.0000000), wk =   0.0625000
        k(   18) = (   0.7460898   0.0000000   0.0000000), wk =   0.0625000
        k(   19) = (  -0.1243483  -0.5060687   0.0000000), wk =   0.1250000
        k(   20) = (   0.0000000  -0.4337731   0.0000000), wk =   0.0625000
        k(   21) = (  -0.9947864   0.0000000   0.0000000), wk =   0.0312500

                       cryst. coord.
        k(    1) = (   0.0000000   0.0000000   0.0000000), wk =   0.0312500
        k(    2) = (   0.0000000   0.1250000   0.0000000), wk =   0.1250000
        k(    3) = (   0.0000000   0.2500000   0.0000000), wk =   0.1250000
        k(    4) = (   0.0000000   0.3750000   0.0000000), wk =   0.1250000
        k(    5) = (   0.0000000  -0.5000000   0.0000000), wk =   0.0625000
        k(    6) = (   0.1250000   0.1250000   0.0000000), wk =   0.0625000
        k(    7) = (   0.1250000   0.2500000   0.0000000), wk =   0.1250000
        k(    8) = (   0.1250000   0.3750000   0.0000000), wk =   0.1250000
        k(    9) = (   0.1250000  -0.5000000   0.0000000), wk =   0.1250000
        k(   10) = (   0.1250000  -0.3750000   0.0000000), wk =   0.1250000
        k(   11) = (   0.1250000  -0.2500000   0.0000000), wk =   0.1250000
        k(   12) = (   0.1250000  -0.1250000   0.0000000), wk =   0.0625000
        k(   13) = (   0.2500000   0.2500000   0.0000000), wk =   0.0625000
        k(   14) = (   0.2500000   0.3750000   0.0000000), wk =   0.1250000
        k(   15) = (   0.2500000  -0.5000000   0.0000000), wk =   0.1250000
        k(   16) = (   0.2500000  -0.3750000   0.0000000), wk =   0.1250000
        k(   17) = (   0.2500000  -0.2500000   0.0000000), wk =   0.0625000
        k(   18) = (   0.3750000   0.3750000   0.0000000), wk =   0.0625000
        k(   19) = (   0.3750000  -0.5000000   0.0000000), wk =   0.1250000
        k(   20) = (   0.3750000  -0.3750000   0.0000000), wk =   0.0625000
        k(   21) = (  -0.5000000  -0.5000000   0.0000000), wk =   0.0312500

     Initial potential from superposition of free atoms

     starting charge    7.99888, renormalised to    8.00000

     negative rho (up, down):  3.014E-06 0.000E+00
     Starting wfcs are    8 randomized atomic wfcs

     Self-consistent Calculation

     iteration #  1     ecut=    30.00 Ry     beta= 0.40
     Davidson diagonalization with overlap
     ethr =  1.00E-02,  avg # of iterations =  4.3

     Threshold (ethr) on eigenvalues was too large:
     Diagonalizing with lowered threshold

     Davidson diagonalization with overlap
     ethr =  9.19E-04,  avg # of iterations =  1.0

     negative rho (up, down):  1.960E-06 0.000E+00

     total energy              =     -22.74122012 Ry
     Harris-Foulkes estimate   =     -22.76110766 Ry
     estimated scf accuracy    <       0.07244141 Ry

[...]

     total energy              =     -22.73976630 Ry
     Harris-Foulkes estimate   =     -22.73976631 Ry
     estimated scf accuracy    <          4.8E-10 Ry

     iteration # 10     ecut=    30.00 Ry     beta= 0.40
     Davidson diagonalization with overlap
     ethr =  5.98E-12,  avg # of iterations =  2.0

[...]

     End of self-consistent calculation

          k = 0.0000 0.0000 0.0000 (  2867 PWs)   bands (ev):

   -13.2212  -4.8625  -3.4898  -3.3424   0.1608   0.8478   1.1136   1.3580

     occupation numbers
     1.0000   1.0000   1.0000   1.0000   0.0000   0.0000   0.0000   0.0000

[...]

          k =-0.4974-0.2892 0.0000 (  2876 PWs)   bands (ev):

[...]

          k = 0.0000-0.4338 0.0000 (  2885 PWs)   bands (ev):

[...]

          k =-0.9948 0.0000 0.0000 (  2888 PWs)   bands (ev):

   -10.8573  -9.3953  -4.7883  -2.5846  -1.0400  -0.9436   4.3104   4.8109

     occupation numbers
     1.0000   1.0000   1.0000   1.0001   0.0000   0.0000   0.0000   0.0000

     the Fermi energy is    -1.8859 ev

!    total energy              =     -22.73976630 Ry
     Harris-Foulkes estimate   =     -22.73976630 Ry
     estimated scf accuracy    <          2.6E-11 Ry

     The total energy is the sum of the following terms:

     one-electron contribution =     -39.49728712 Ry
     hartree contribution      =      20.98756897 Ry
     xc contribution           =     -12.21489382 Ry
     ewald contribution        =       7.98458886 Ry
     smearing contrib. (-TS)   =       0.00025681 Ry

     convergence has been achieved in  10 iterations

     negative rho (up, down):  1.955E-06 0.000E+00

     Forces acting on atoms (cartesian axes, Ry/au):

     atom    1 type  1   force =     0.00000000    0.02146483    0.00000000
     atom    2 type  1   force =     0.00000000   -0.02146483    0.00000000
     The non-local contrib.  to forces
     atom    1 type  1   force =     0.00000000    0.02361703    0.00000000
     atom    2 type  1   force =     0.00000000   -0.02365963    0.00000000
     The ionic contribution  to forces
     atom    1 type  1   force =    -0.00000000    0.06637603   -0.00000000
     atom    2 type  1   force =     0.00000000   -0.06637603   -0.00000000
     The local contribution  to forces
     atom    1 type  1   force =     0.00000000   -0.06576186    0.00000000
     atom    2 type  1   force =     0.00000000    0.06576834    0.00000000
     The core correction contribution to forces
     atom    1 type  1   force =    -0.00000000   -0.00277786    0.00000000
     atom    2 type  1   force =    -0.00000000    0.00279048    0.00000000
     The Hubbard contrib.    to forces
     atom    1 type  1   force =     0.00000000    0.00000000    0.00000000
     atom    2 type  1   force =     0.00000000    0.00000000    0.00000000
     The SCF correction term to forces
     atom    1 type  1   force =    -0.00000000   -0.00000023   -0.00000000
     atom    2 type  1   force =    -0.00000000    0.00000029   -0.00000000

     Total force =     0.030356     Total SCF correction =     0.000000

     Computing stress (Cartesian axis) and pressure

     negative rho (up, down):  1.955E-06 0.000E+00
          total   stress  (Ry/bohr**3)                   (kbar)     P=   12.43
   0.00008919   0.00000000   0.00000000         13.12      0.00      0.00
   0.00000000   0.00016471   0.00000000          0.00     24.23      0.00
   0.00000000   0.00000000  -0.00000041          0.00      0.00     -0.06

     kinetic stress (kbar)    527.93      0.00      0.00
                                0.00    525.36      0.00
                                0.00      0.00    656.14

     local   stress (kbar)  -6541.54     -0.00      0.00
                               -0.00  -6588.77      0.00
                                0.00      0.00   6824.20

     nonloc. stress (kbar)    447.66     -0.00      0.00
                                0.00    454.57      0.00
                                0.00      0.00    378.96

     hartree stress (kbar)   2913.56      0.00     -0.00
                                0.00   2919.99      0.00
                               -0.00      0.00  -2842.72

     exc-cor stress (kbar)    778.05      0.00      0.00
                                0.00    778.40      0.00
                                0.00      0.00    768.94

     corecor stress (kbar)  -1036.27     -0.00      0.00
                               -0.00  -1037.18     -0.00
                                0.00     -0.00  -1027.84

     ewald   stress (kbar)   2923.73      0.00     -0.00
                                0.00   2971.85     -0.00
                               -0.00     -0.00  -4757.74

     hubbard stress (kbar)      0.00      0.00      0.00
                                0.00      0.00      0.00
                                0.00      0.00      0.00

     london  stress (kbar)      0.00      0.00      0.00
                                0.00      0.00      0.00
                                0.00      0.00      0.00

     DFT-D3  stress (kbar)      0.00      0.00      0.00
                                0.00      0.00      0.00
                                0.00      0.00      0.00

     XDM     stress (kbar)      0.00      0.00      0.00
                                0.00      0.00      0.00
                                0.00      0.00      0.00

     dft-nl  stress (kbar)      0.00      0.00      0.00
                                0.00      0.00      0.00
                                0.00      0.00      0.00

     TS-vdW  stress (kbar)      0.00      0.00      0.00
                                0.00      0.00      0.00
                                0.00      0.00      0.00

     Writing output data file silicene.save/

     General routines

     Parallel routines

   This run was terminated on:  21:45:29  22Sep2023

   JOB DONE.