     Program PWSCF v.6.4.1 starts on 22Sep2023 at 21:44:54

     Reading input from silicene_scf_kpoints-6.in

     Current dimensions of program PWSCF are:
     Max number of different atomic species (ntypx) = 10
     Max number of k-points (npk) =  40000
     Max angular momentum in pseudopotentials (lmaxx) =  3
     Message from routine read_upf::
     Pseudo file Si.pbe-n-rrkjus_psl.1.0.0.UPF has been fixed on the fly.
To avoid this message in the future, permanently fix
 your pseudo files following these instructions:

     Subspace diagonalization in iterative solution of the eigenvalue problem:
     a serial algorithm will be used

     Message from routine setup:
     DEPRECATED: symmetry with ibrav=0, use correct ibrav instead

     bravais-lattice index     =            0
     lattice parameter (alat)  =       7.2375  a.u.
     unit-cell volume          =    1032.2806 (a.u.)^3
     number of atoms/cell      =            2
     number of atomic types    =            1
     number of electrons       =         8.00
     number of Kohn-Sham states=            8
     kinetic-energy cutoff     =      30.0000  Ry
     charge density cutoff     =     240.0000  Ry
     convergence threshold     =      4.0E-10
     mixing beta               =       0.4000
     number of iterations used =            8  plain     mixing
     Exchange-correlation      = PBE ( 1  4  3  4 0 0)

     celldm(1)=   7.237514  celldm(2)=   0.000000  celldm(3)=   0.000000
     celldm(4)=   0.000000  celldm(5)=   0.000000  celldm(6)=   0.000000

     crystal axes: (cart. coord. in units of alat)
               a(1) = (   0.502620  -0.864507   0.000000 )
               a(2) = (   0.502620   0.864507   0.000000 )
               a(3) = (   0.000000   0.000000   3.133218 )

     reciprocal axes: (cart. coord. in units 2 pi/alat)
               b(1) = (  0.994786 -0.578364  0.000000 )
               b(2) = (  0.994786  0.578364 -0.000000 )
               b(3) = ( -0.000000  0.000000  0.319161 )

     PseudoPot. # 1 for Si read from file:
     /home/meyn/q-e-qe-7.1/pseudo/Si.pbe-n-rrkjus_psl.1.0.0.UPF
     MD5 check sum: 56671f82560c68743c116fe4c72cdc4c
     Pseudo is Ultrasoft + core correction, Zval =  4.0
     Generated using "atomic" code by A. Dal Corso v.5.1.2
     Using radial grid of 1141 points,  6 beta functions with:
                l(1) =   0
                l(2) =   0
                l(3) =   1
                l(4) =   1
                l(5) =   2
                l(6) =   2
     Q(r) pseudized with 0 coefficients

     atomic species   valence    mass     pseudopotential
        Si             4.00    28.08550     Si( 1.00)

      4 Sym. Ops. (no inversion) found

                                    s                        frac. trans.

      isym =  1     identity

 cryst.   s( 1) = (     1          0          0      )
                  (     0          1          0      )
                  (     0          0          1      )

 cart.    s( 1) = (  1.0000000  0.0000000  0.0000000 )
                  (  0.0000000  1.0000000  0.0000000 )
                  (  0.0000000  0.0000000  1.0000000 )

      isym =  2     180 deg rotation - cart. axis [0,1,0]

[...]

      isym =  3     inv. 180 deg rotation - cart. axis [0,0,1]

[...]

      isym =  4     inv. 180 deg rotation - cart. axis [1,0,0]

 cryst.   s( 4) = (     0         -1          0      )
                  (    -1          0          0      )
                  (     0          0          1      )

 cart.    s( 4) = ( -1.0000000  0.0000000  0.0000000 )
                  (  0.0000000  1.0000000  0.0000000 )
                  (  0.0000000  0.0000000  1.0000000 )

   Cartesian axes

     site n.     atom                  positions (alat units)
         1           Si  tau(   1) = (   0.0000000   0.0000000   0.0000000  )
         2           Si  tau(   2) = (   0.5026205   0.2939324   0.0000000  )

   Crystallographic axes

     site n.     atom                  positions (cryst. coord.)
         1           Si  tau(   1) = (  0.0000000  0.0000000  0.0000000  )
         2           Si  tau(   2) = (  0.3300000  0.6700000  0.0000000  )

     number of k points=    13  Marzari-Vanderbilt smearing, width (Ry)=  0.0147
                       cart. coord. in units 2pi/alat
        k(    1) = (   0.0000000   0.0000000   0.0000000), wk =   0.0555556
        k(    2) = (   0.1657977   0.0963940   0.0000000), wk =   0.2222222
        k(    3) = (   0.3315955   0.1927881   0.0000000), wk =   0.2222222
        k(    4) = (  -0.4973932  -0.2891821   0.0000000), wk =   0.1111111
        k(    5) = (   0.3315955   0.0000000   0.0000000), wk =   0.1111111
        k(    6) = (   0.4973932   0.0963940   0.0000000), wk =   0.2222222
        k(    7) = (  -0.3315955  -0.3855761   0.0000000), wk =   0.2222222
        k(    8) = (  -0.1657977  -0.2891821   0.0000000), wk =   0.2222222
        k(    9) = (   0.0000000  -0.1927881   0.0000000), wk =   0.1111111
        k(   10) = (   0.6631909   0.0000000   0.0000000), wk =   0.1111111
        k(   11) = (  -0.1657977  -0.4819702   0.0000000), wk =   0.2222222
        k(   12) = (  -0.0000000  -0.3855761   0.0000000), wk =   0.1111111
        k(   13) = (  -0.9947864   0.0000000   0.0000000), wk =   0.0555556

                       cryst. coord.
        k(    1) = (   0.0000000   0.0000000   0.0000000), wk =   0.0555556
        k(    2) = (   0.0000000   0.1666667   0.0000000), wk =   0.2222222
        k(    3) = (   0.0000000   0.3333333   0.0000000), wk =   0.2222222
        k(    4) = (   0.0000000  -0.5000000   0.0000000), wk =   0.1111111
        k(    5) = (   0.1666667   0.1666667   0.0000000), wk =   0.1111111
        k(    6) = (   0.1666667   0.3333333   0.0000000), wk =   0.2222222
        k(    7) = (   0.1666667  -0.5000000   0.0000000), wk =   0.2222222
        k(    8) = (   0.1666667  -0.3333333   0.0000000), wk =   0.2222222
        k(    9) = (   0.1666667  -0.1666667   0.0000000), wk =   0.1111111
        k(   10) = (   0.3333333   0.3333333   0.0000000), wk =   0.1111111
        k(   11) = (   0.3333333  -0.5000000   0.0000000), wk =   0.2222222
        k(   12) = (   0.3333333  -0.3333333   0.0000000), wk =   0.1111111
        k(   13) = (  -0.5000000  -0.5000000   0.0000000), wk =   0.0555556

     Initial potential from superposition of free atoms

     starting charge    7.99888, renormalised to    8.00000

     negative rho (up, down):  3.014E-06 0.000E+00
     Starting wfcs are    8 randomized atomic wfcs

     Self-consistent Calculation

     iteration #  1     ecut=    30.00 Ry     beta= 0.40
     Davidson diagonalization with overlap
     ethr =  1.00E-02,  avg # of iterations =  4.8

     Threshold (ethr) on eigenvalues was too large:
     Diagonalizing with lowered threshold

     Davidson diagonalization with overlap
     ethr =  9.26E-04,  avg # of iterations =  1.0

     negative rho (up, down):  1.969E-06 0.000E+00

     total energy              =     -22.73969984 Ry
     Harris-Foulkes estimate   =     -22.75976762 Ry
     estimated scf accuracy    <       0.07304650 Ry

[...]

     total energy              =     -22.73824578 Ry
     Harris-Foulkes estimate   =     -22.73824578 Ry
     estimated scf accuracy    <          2.8E-09 Ry

     iteration #  9     ecut=    30.00 Ry     beta= 0.40
     Davidson diagonalization with overlap
     ethr =  3.55E-11,  avg # of iterations =  2.1

[...]

     End of self-consistent calculation

          k = 0.0000 0.0000 0.0000 (  2867 PWs)   bands (ev):

   -13.2180  -4.8610  -3.4816  -3.3431   0.1631   0.8535   1.1126   1.3579

     occupation numbers
     1.0000   1.0000   1.0000   1.0000   0.0000   0.0000   0.0000   0.0000

[...]

          k =-0.4974-0.2892 0.0000 (  2876 PWs)   bands (ev):

[...]

          k = 0.6632 0.0000 0.0000 (  2826 PWs)   bands (ev):

[...]

          k =-0.9948 0.0000 0.0000 (  2888 PWs)   bands (ev):

   -10.8584  -9.3848  -4.7874  -2.5850  -1.0349  -0.9450   4.3110   4.8108

     occupation numbers
     1.0000   1.0000   1.0000   1.0000   0.0000   0.0000   0.0000   0.0000

     the Fermi energy is    -1.6155 ev

!    total energy              =     -22.73824577 Ry
     Harris-Foulkes estimate   =     -22.73824578 Ry
     estimated scf accuracy    <          1.8E-10 Ry

     The total energy is the sum of the following terms:

     one-electron contribution =     -39.49614022 Ry
     hartree contribution      =      20.98929902 Ry
     xc contribution           =     -12.21557182 Ry
     ewald contribution        =       7.98458886 Ry
     smearing contrib. (-TS)   =      -0.00042161 Ry

     convergence has been achieved in   9 iterations

     negative rho (up, down):  1.950E-06 0.000E+00

     Forces acting on atoms (cartesian axes, Ry/au):

     atom    1 type  1   force =     0.00000000    0.01896395    0.00000000
     atom    2 type  1   force =     0.00000000   -0.01896395    0.00000000
     The non-local contrib.  to forces
     atom    1 type  1   force =     0.00000000    0.02404728    0.00000000
     atom    2 type  1   force =     0.00000000   -0.02408995    0.00000000
     The ionic contribution  to forces
     atom    1 type  1   force =    -0.00000000    0.06637603   -0.00000000
     atom    2 type  1   force =     0.00000000   -0.06637603   -0.00000000
     The local contribution  to forces
     atom    1 type  1   force =     0.00000000   -0.06864209    0.00000000
     atom    2 type  1   force =     0.00000000    0.06864867    0.00000000
     The core correction contribution to forces
     atom    1 type  1   force =     0.00000000   -0.00282821    0.00000000
     atom    2 type  1   force =    -0.00000000    0.00284049    0.00000000
     The Hubbard contrib.    to forces
     atom    1 type  1   force =     0.00000000    0.00000000    0.00000000
     atom    2 type  1   force =     0.00000000    0.00000000    0.00000000
     The SCF correction term to forces
     atom    1 type  1   force =    -0.00000000   -0.00000094   -0.00000000
     atom    2 type  1   force =     0.00000000    0.00000098   -0.00000000

     Total force =     0.026819     Total SCF correction =     0.000001

     Computing stress (Cartesian axis) and pressure

     negative rho (up, down):  1.950E-06 0.000E+00
          total   stress  (Ry/bohr**3)                   (kbar)     P=   12.58
   0.00009677   0.00000000   0.00000000         14.24      0.00      0.00
   0.00000000   0.00016019   0.00000000          0.00     23.57      0.00
   0.00000000   0.00000000  -0.00000045          0.00      0.00     -0.07

     kinetic stress (kbar)    529.10      0.00      0.00
                                0.00    525.51     -0.00
                                0.00      0.00    656.16

     local   stress (kbar)  -6541.26     -0.00      0.00
                               -0.00  -6589.72      0.00
                                0.00      0.00   6824.53

     nonloc. stress (kbar)    447.51     -0.00      0.00
                               -0.00    454.41     -0.00
                                0.00      0.00    378.54

     hartree stress (kbar)   2913.42      0.00      0.00
                                0.00   2920.31     -0.00
                                0.00     -0.00  -2842.66

     exc-cor stress (kbar)    778.01      0.00     -0.00
                                0.00    778.38     -0.00
                               -0.00     -0.00    768.91

     corecor stress (kbar)  -1036.28     -0.00      0.00
                               -0.00  -1037.18     -0.00
                                0.00     -0.00  -1027.81

     ewald   stress (kbar)   2923.73      0.00     -0.00
                                0.00   2971.85     -0.00
                               -0.00     -0.00  -4757.74

     hubbard stress (kbar)      0.00      0.00      0.00
                                0.00      0.00      0.00
                                0.00      0.00      0.00

     london  stress (kbar)      0.00      0.00      0.00
                                0.00      0.00      0.00
                                0.00      0.00      0.00

     DFT-D3  stress (kbar)      0.00      0.00      0.00
                                0.00      0.00      0.00
                                0.00      0.00      0.00

     XDM     stress (kbar)      0.00      0.00      0.00
                                0.00      0.00      0.00
                                0.00      0.00      0.00

     dft-nl  stress (kbar)      0.00      0.00      0.00
                                0.00      0.00      0.00
                                0.00      0.00      0.00

     TS-vdW  stress (kbar)      0.00      0.00      0.00
                                0.00      0.00      0.00
                                0.00      0.00      0.00

     Writing output data file silicene.save/

     General routines

     Parallel routines

   This run was terminated on:  21:45: 9  22Sep2023

   JOB DONE.