     Program PWSCF v.6.4.1 starts on 22Sep2023 at 21:36:39

     Reading input from silicene_scf_kpoints-5.in

     Current dimensions of program PWSCF are:
     Max number of different atomic species (ntypx) = 10
     Max number of k-points (npk) =  40000
     Max angular momentum in pseudopotentials (lmaxx) =  3
     Message from routine read_upf::
     Pseudo file Si.pbe-n-rrkjus_psl.1.0.0.UPF has been fixed on the fly.
To avoid this message in the future, permanently fix
 your pseudo files following these instructions:

     Subspace diagonalization in iterative solution of the eigenvalue problem:
     a serial algorithm will be used

     Message from routine setup:
     DEPRECATED: symmetry with ibrav=0, use correct ibrav instead

     bravais-lattice index     =            0
     lattice parameter (alat)  =       7.2375  a.u.
     unit-cell volume          =    1032.2806 (a.u.)^3
     number of atoms/cell      =            2
     number of atomic types    =            1
     number of electrons       =         8.00
     number of Kohn-Sham states=            8
     kinetic-energy cutoff     =      30.0000  Ry
     charge density cutoff     =     240.0000  Ry
     convergence threshold     =      4.0E-10
     mixing beta               =       0.4000
     number of iterations used =            8  plain     mixing
     Exchange-correlation      = PBE ( 1  4  3  4 0 0)

     celldm(1)=   7.237514  celldm(2)=   0.000000  celldm(3)=   0.000000
     celldm(4)=   0.000000  celldm(5)=   0.000000  celldm(6)=   0.000000

     crystal axes: (cart. coord. in units of alat)
               a(1) = (   0.502620  -0.864507   0.000000 )
               a(2) = (   0.502620   0.864507   0.000000 )
               a(3) = (   0.000000   0.000000   3.133218 )

     reciprocal axes: (cart. coord. in units 2 pi/alat)
               b(1) = (  0.994786 -0.578364  0.000000 )
               b(2) = (  0.994786  0.578364 -0.000000 )
               b(3) = ( -0.000000  0.000000  0.319161 )

     PseudoPot. # 1 for Si read from file:
     /home/meyn/q-e-qe-7.1/pseudo/Si.pbe-n-rrkjus_psl.1.0.0.UPF
     MD5 check sum: 56671f82560c68743c116fe4c72cdc4c
     Pseudo is Ultrasoft + core correction, Zval =  4.0
     Generated using "atomic" code by A. Dal Corso v.5.1.2
     Using radial grid of 1141 points,  6 beta functions with:
                l(1) =   0
                l(2) =   0
                l(3) =   1
                l(4) =   1
                l(5) =   2
                l(6) =   2
     Q(r) pseudized with 0 coefficients

     atomic species   valence    mass     pseudopotential
        Si             4.00    28.08550     Si( 1.00)

      4 Sym. Ops. (no inversion) found

                                    s                        frac. trans.

      isym =  1     identity

 cryst.   s( 1) = (     1          0          0      )
                  (     0          1          0      )
                  (     0          0          1      )

 cart.    s( 1) = (  1.0000000  0.0000000  0.0000000 )
                  (  0.0000000  1.0000000  0.0000000 )
                  (  0.0000000  0.0000000  1.0000000 )

      isym =  2     180 deg rotation - cart. axis [0,1,0]

[...]

      isym =  3     inv. 180 deg rotation - cart. axis [0,0,1]

[...]

      isym =  4     inv. 180 deg rotation - cart. axis [1,0,0]

 cryst.   s( 4) = (     0         -1          0      )
                  (    -1          0          0      )
                  (     0          0          1      )

 cart.    s( 4) = ( -1.0000000  0.0000000  0.0000000 )
                  (  0.0000000  1.0000000  0.0000000 )
                  (  0.0000000  0.0000000  1.0000000 )

   Cartesian axes

     site n.     atom                  positions (alat units)
         1           Si  tau(   1) = (   0.0000000   0.0000000   0.0000000  )
         2           Si  tau(   2) = (   0.5026205   0.2939324   0.0000000  )

   Crystallographic axes

     site n.     atom                  positions (cryst. coord.)
         1           Si  tau(   1) = (  0.0000000  0.0000000  0.0000000  )
         2           Si  tau(   2) = (  0.3300000  0.6700000  0.0000000  )

     number of k points=    27  Marzari-Vanderbilt smearing, width (Ry)=  0.0147
                       cart. coord. in units 2pi/alat
        k(    1) = (   0.0000000   0.0000000   0.0000000), wk =   0.0160000
        k(    2) = (   0.0000000   0.0000000   0.0638321), wk =   0.0320000
        k(    3) = (   0.0000000   0.0000000   0.1276643), wk =   0.0320000
        k(    4) = (   0.1989573   0.1156728   0.0000000), wk =   0.0640000
        k(    5) = (   0.1989573   0.1156728   0.0638321), wk =   0.1280000
        k(    6) = (   0.1989573   0.1156728   0.1276643), wk =   0.1280000
        k(    7) = (   0.3979146   0.2313457   0.0000000), wk =   0.0640000
        k(    8) = (   0.3979146   0.2313457   0.0638321), wk =   0.1280000
        k(    9) = (   0.3979146   0.2313457   0.1276643), wk =   0.1280000
        k(   10) = (   0.3979146   0.0000000   0.0000000), wk =   0.0320000
        k(   11) = (   0.3979146   0.0000000   0.0638321), wk =   0.0640000
        k(   12) = (   0.3979146   0.0000000   0.1276643), wk =   0.0640000
        k(   13) = (   0.5968718   0.1156728   0.0000000), wk =   0.0640000
        k(   14) = (   0.5968718   0.1156728   0.0638321), wk =   0.1280000
        k(   15) = (   0.5968718   0.1156728   0.1276643), wk =   0.1280000
        k(   16) = (  -0.1989573  -0.3470185   0.0000000), wk =   0.0640000
        k(   17) = (  -0.1989573  -0.3470185   0.0638321), wk =   0.1280000
        k(   18) = (  -0.1989573  -0.3470185   0.1276643), wk =   0.1280000
        k(   19) = (   0.0000000  -0.2313457   0.0000000), wk =   0.0320000
        k(   20) = (   0.0000000  -0.2313457   0.0638321), wk =   0.0640000
        k(   21) = (   0.0000000  -0.2313457   0.1276643), wk =   0.0640000
        k(   22) = (   0.7958291   0.0000000   0.0000000), wk =   0.0320000
        k(   23) = (   0.7958291   0.0000000   0.0638321), wk =   0.0640000
        k(   24) = (   0.7958291   0.0000000   0.1276643), wk =   0.0640000
        k(   25) = (   0.0000000  -0.4626914   0.0000000), wk =   0.0320000
        k(   26) = (   0.0000000  -0.4626914   0.0638321), wk =   0.0640000
        k(   27) = (   0.0000000  -0.4626914   0.1276643), wk =   0.0640000

                       cryst. coord.
        k(    1) = (   0.0000000   0.0000000   0.0000000), wk =   0.0160000
        k(    2) = (   0.0000000   0.0000000   0.2000000), wk =   0.0320000
        k(    3) = (   0.0000000   0.0000000   0.4000000), wk =   0.0320000
        k(    4) = (   0.0000000   0.2000000   0.0000000), wk =   0.0640000
        k(    5) = (   0.0000000   0.2000000   0.2000000), wk =   0.1280000
        k(    6) = (   0.0000000   0.2000000   0.4000000), wk =   0.1280000
        k(    7) = (   0.0000000   0.4000000   0.0000000), wk =   0.0640000
        k(    8) = (   0.0000000   0.4000000   0.2000000), wk =   0.1280000
        k(    9) = (   0.0000000   0.4000000   0.4000000), wk =   0.1280000
        k(   10) = (   0.2000000   0.2000000   0.0000000), wk =   0.0320000
        k(   11) = (   0.2000000   0.2000000   0.2000000), wk =   0.0640000
        k(   12) = (   0.2000000   0.2000000   0.4000000), wk =   0.0640000
        k(   13) = (   0.2000000   0.4000000   0.0000000), wk =   0.0640000
        k(   14) = (   0.2000000   0.4000000   0.2000000), wk =   0.1280000
        k(   15) = (   0.2000000   0.4000000   0.4000000), wk =   0.1280000
        k(   16) = (   0.2000000  -0.4000000   0.0000000), wk =   0.0640000
        k(   17) = (   0.2000000  -0.4000000   0.2000000), wk =   0.1280000
        k(   18) = (   0.2000000  -0.4000000   0.4000000), wk =   0.1280000
        k(   19) = (   0.2000000  -0.2000000   0.0000000), wk =   0.0320000
        k(   20) = (   0.2000000  -0.2000000   0.2000000), wk =   0.0640000
        k(   21) = (   0.2000000  -0.2000000   0.4000000), wk =   0.0640000
        k(   22) = (   0.4000000   0.4000000   0.0000000), wk =   0.0320000
        k(   23) = (   0.4000000   0.4000000   0.2000000), wk =   0.0640000
        k(   24) = (   0.4000000   0.4000000   0.4000000), wk =   0.0640000
        k(   25) = (   0.4000000  -0.4000000   0.0000000), wk =   0.0320000
        k(   26) = (   0.4000000  -0.4000000   0.2000000), wk =   0.0640000
        k(   27) = (   0.4000000  -0.4000000   0.4000000), wk =   0.0640000

     Initial potential from superposition of free atoms

     starting charge    7.99888, renormalised to    8.00000

     negative rho (up, down):  3.014E-06 0.000E+00
     Starting wfcs are    8 randomized atomic wfcs

     Self-consistent Calculation

     iteration #  1     ecut=    30.00 Ry     beta= 0.40
     Davidson diagonalization with overlap
     ethr =  1.00E-02,  avg # of iterations =  4.4

     Threshold (ethr) on eigenvalues was too large:
     Diagonalizing with lowered threshold

     Davidson diagonalization with overlap
     ethr =  9.37E-04,  avg # of iterations =  1.1

     negative rho (up, down):  1.241E-06 0.000E+00

     total energy              =     -22.73850328 Ry
     Harris-Foulkes estimate   =     -22.75878208 Ry
     estimated scf accuracy    <       0.07401489 Ry

[...]

     iteration #  4     ecut=    30.00 Ry     beta= 0.40
     Davidson diagonalization with overlap
     c_bands:  1 eigenvalues not converged
     ethr =  8.15E-06,  avg # of iterations =  5.5

[...]

     total energy              =     -22.73698694 Ry
     Harris-Foulkes estimate   =     -22.73698694 Ry
     estimated scf accuracy    <       0.00000002 Ry

     iteration #  8     ecut=    30.00 Ry     beta= 0.40
     Davidson diagonalization with overlap
     ethr =  2.73E-10,  avg # of iterations =  2.4

[...]

     End of self-consistent calculation

          k = 0.0000 0.0000 0.0000 (  2867 PWs)   bands (ev):

   -13.2104  -4.8561  -3.4749  -3.3315   0.1714   0.8566   1.1194   1.3585

     occupation numbers
     1.0000   1.0000   1.0000   1.0000   0.0000   0.0000   0.0000   0.0000

[...]

          k =-0.1990-0.3470 0.0000 (  2870 PWs)   bands (ev):

[...]

          k =-0.1990-0.3470 0.1277 (  2865 PWs)   bands (ev):

[...]

          k = 0.0000-0.4627 0.1277 (  2879 PWs)   bands (ev):

   -11.3979  -8.6272  -4.6823  -3.0968  -0.8169  -0.3109   3.5117   4.6150

     occupation numbers
     1.0000   1.0000   1.0000   1.0000   0.0000   0.0000   0.0000   0.0000

     the Fermi energy is    -2.0843 ev

!    total energy              =     -22.73698694 Ry
     Harris-Foulkes estimate   =     -22.73698695 Ry
     estimated scf accuracy    <          3.3E-10 Ry

     The total energy is the sum of the following terms:

     one-electron contribution =     -39.49892389 Ry
     hartree contribution      =      20.99401803 Ry
     xc contribution           =     -12.21732642 Ry
     ewald contribution        =       7.98458886 Ry
     smearing contrib. (-TS)   =       0.00065648 Ry

     convergence has been achieved in   8 iterations

     negative rho (up, down):  6.955E-07 0.000E+00

     Forces acting on atoms (cartesian axes, Ry/au):

     atom    1 type  1   force =     0.00000000    0.02044032    0.00000000
     atom    2 type  1   force =     0.00000000   -0.02044032    0.00000000
     The non-local contrib.  to forces
     atom    1 type  1   force =     0.00000000    0.02395910    0.00000000
     atom    2 type  1   force =     0.00000000   -0.02400212    0.00000000
     The ionic contribution  to forces
     atom    1 type  1   force =    -0.00000000    0.06637603   -0.00000000
     atom    2 type  1   force =     0.00000000   -0.06637603   -0.00000000
     The local contribution  to forces
     atom    1 type  1   force =    -0.00000000   -0.06709974    0.00000000
     atom    2 type  1   force =     0.00000000    0.06710644    0.00000000
     The core correction contribution to forces
     atom    1 type  1   force =     0.00000000   -0.00281338    0.00000000
     atom    2 type  1   force =    -0.00000000    0.00282487    0.00000000
     The Hubbard contrib.    to forces
     atom    1 type  1   force =     0.00000000    0.00000000    0.00000000
     atom    2 type  1   force =     0.00000000    0.00000000    0.00000000
     The SCF correction term to forces
     atom    1 type  1   force =    -0.00000000    0.00000593   -0.00000000
     atom    2 type  1   force =     0.00000000   -0.00000585   -0.00000000

     Total force =     0.028907     Total SCF correction =     0.000008

     Computing stress (Cartesian axis) and pressure

     negative rho (up, down):  6.955E-07 0.000E+00
          total   stress  (Ry/bohr**3)                   (kbar)     P=   12.66
   0.00009608   0.00000000   0.00000000         14.13      0.00      0.00
   0.00000000   0.00016262  -0.00000000          0.00     23.92     -0.00
   0.00000000   0.00000000  -0.00000047          0.00      0.00     -0.07

     kinetic stress (kbar)    529.79     -0.00      0.00
                                0.00    526.21      0.00
                                0.00      0.00    656.25

     local   stress (kbar)  -6542.22     -0.00     -0.00
                               -0.00  -6590.04      0.00
                               -0.00      0.00   6824.89

     nonloc. stress (kbar)    447.33      0.00      0.00
                                0.00    454.29      0.00
                                0.00      0.00    378.07

     hartree stress (kbar)   2913.86     -0.00     -0.00
                               -0.00   2920.51     -0.00
                               -0.00     -0.00  -2842.62

     exc-cor stress (kbar)    777.93      0.00      0.00
                                0.00    778.29      0.00
                                0.00      0.00    768.84

     corecor stress (kbar)  -1036.29     -0.00     -0.00
                               -0.00  -1037.19     -0.00
                               -0.00      0.00  -1027.75

     ewald   stress (kbar)   2923.73      0.00     -0.00
                                0.00   2971.85     -0.00
                               -0.00     -0.00  -4757.74

     hubbard stress (kbar)      0.00      0.00      0.00
                                0.00      0.00      0.00
                                0.00      0.00      0.00

     london  stress (kbar)      0.00      0.00      0.00
                                0.00      0.00      0.00
                                0.00      0.00      0.00

     DFT-D3  stress (kbar)      0.00      0.00      0.00
                                0.00      0.00      0.00
                                0.00      0.00      0.00

     XDM     stress (kbar)      0.00      0.00      0.00
                                0.00      0.00      0.00
                                0.00      0.00      0.00

     dft-nl  stress (kbar)      0.00      0.00      0.00
                                0.00      0.00      0.00
                                0.00      0.00      0.00

     TS-vdW  stress (kbar)      0.00      0.00      0.00
                                0.00      0.00      0.00
                                0.00      0.00      0.00

     Writing output data file silicene.save/

     General routines

     Parallel routines

   This run was terminated on:  21:36:59  22Sep2023

   JOB DONE.