     Program PWSCF v.6.4.1 starts on 23Sep2023 at  1:32:16

     Waiting for input...
     Reading input from standard input

     Current dimensions of program PWSCF are:
     Max number of different atomic species (ntypx) = 10
     Max number of k-points (npk) =  40000
     Max angular momentum in pseudopotentials (lmaxx) =  3
     Message from routine read_upf::
     Pseudo file Si.pbe-n-rrkjus_psl.1.0.0.UPF has been fixed on the fly.
To avoid this message in the future, permanently fix
 your pseudo files following these instructions:

     Subspace diagonalization in iterative solution of the eigenvalue problem:
     a serial algorithm will be used

     Message from routine setup:
     DEPRECATED: symmetry with ibrav=0, use correct ibrav instead

     bravais-lattice index     =            0
     lattice parameter (alat)  =       7.3738  a.u.
     unit-cell volume          =    1067.7252 (a.u.)^3
     number of atoms/cell      =            2
     number of atomic types    =            1
     number of electrons       =         8.00
     number of Kohn-Sham states=            8
     kinetic-energy cutoff     =      70.0000  Ry
     charge density cutoff     =     240.0000  Ry
     convergence threshold     =      4.0E-10
     mixing beta               =       0.4000
     number of iterations used =            8  plain     mixing
     Exchange-correlation      = PBE ( 1  4  3  4 0 0)

     celldm(1)=   7.373770  celldm(2)=   0.000000  celldm(3)=   0.000000
     celldm(4)=   0.000000  celldm(5)=   0.000000  celldm(6)=   0.000000

     crystal axes: (cart. coord. in units of alat)
               a(1) = (   0.499990  -0.866031  -0.000000 )
               a(2) = (   0.499990   0.866031   0.000000 )
               a(3) = (  -0.000000   0.000000   3.075148 )

     reciprocal axes: (cart. coord. in units 2 pi/alat)
               b(1) = (  1.000020 -0.577346  0.000000 )
               b(2) = (  1.000020  0.577346  0.000000 )
               b(3) = (  0.000000 -0.000000  0.325188 )

     PseudoPot. # 1 for Si read from file:
     /home/meyn/q-e-qe-7.1/pseudo/Si.pbe-n-rrkjus_psl.1.0.0.UPF
     MD5 check sum: 56671f82560c68743c116fe4c72cdc4c
     Pseudo is Ultrasoft + core correction, Zval =  4.0
     Generated using "atomic" code by A. Dal Corso v.5.1.2
     Using radial grid of 1141 points,  6 beta functions with:
                l(1) =   0
                l(2) =   0
                l(3) =   1
                l(4) =   1
                l(5) =   2
                l(6) =   2
     Q(r) pseudized with 0 coefficients

     atomic species   valence    mass     pseudopotential
        Si             4.00    28.08550     Si( 1.00)

      4 Sym. Ops. (no inversion) found

                                    s                        frac. trans.

      isym =  1     identity

 cryst.   s( 1) = (     1          0          0      )
                  (     0          1          0      )
                  (     0          0          1      )

 cart.    s( 1) = (  1.0000000  0.0000000  0.0000000 )
                  (  0.0000000  1.0000000  0.0000000 )
                  (  0.0000000  0.0000000  1.0000000 )

      isym =  2     180 deg rotation - cart. axis [0,1,0]

[...]

      isym =  3     inv. 180 deg rotation - cart. axis [0,0,1]

[...]

      isym =  4     inv. 180 deg rotation - cart. axis [1,0,0]

 cryst.   s( 4) = (     0         -1          0      )
                  (    -1          0          0      )
                  (     0          0          1      )

 cart.    s( 4) = ( -1.0000000  0.0000000  0.0000000 )
                  (  0.0000000  1.0000000  0.0000000 )
                  (  0.0000000  0.0000000  1.0000000 )

   Cartesian axes

     site n.     atom                  positions (alat units)
         1           Si  tau(   1) = (   0.4999898  -0.8631569   0.0000000  )
         2           Si  tau(   2) = (   0.4999898   0.2915762   0.0000000  )

   Crystallographic axes

     site n.     atom                  positions (cryst. coord.)
         1           Si  tau(   1) = (  0.9983405  0.0016595  0.0000000  )
         2           Si  tau(   2) = (  0.3316595  0.6683405  0.0000000  )

     number of k points=   111  Marzari-Vanderbilt smearing, width (Ry)=  0.0147
                       cart. coord. in units 2pi/alat
        k(    1) = (   0.0000000   0.0000000   0.0000000), wk =   0.0050000
        k(    2) = (   0.0500010   0.0288673   0.0000000), wk =   0.0200000
        k(    3) = (   0.1000020   0.0577346   0.0000000), wk =   0.0200000
        k(    4) = (   0.1500031   0.0866020   0.0000000), wk =   0.0200000
        k(    5) = (   0.2000041   0.1154693   0.0000000), wk =   0.0200000
        k(    6) = (   0.2500051   0.1443366   0.0000000), wk =   0.0200000
        k(    7) = (   0.3000061   0.1732039   0.0000000), wk =   0.0200000
        k(    8) = (   0.3500071   0.2020712   0.0000000), wk =   0.0200000
        k(    9) = (   0.4000081   0.2309385   0.0000000), wk =   0.0200000
        k(   10) = (   0.4500092   0.2598059   0.0000000), wk =   0.0200000
        k(   11) = (  -0.5000102  -0.2886732   0.0000000), wk =   0.0100000
        k(   12) = (   0.1000020   0.0000000   0.0000000), wk =   0.0100000
        k(   13) = (   0.1500031   0.0288673   0.0000000), wk =   0.0200000
        k(   14) = (   0.2000041   0.0577346   0.0000000), wk =   0.0200000
        k(   15) = (   0.2500051   0.0866020   0.0000000), wk =   0.0200000
        k(   16) = (   0.3000061   0.1154693   0.0000000), wk =   0.0200000
        k(   17) = (   0.3500071   0.1443366   0.0000000), wk =   0.0200000
        k(   18) = (   0.4000081   0.1732039   0.0000000), wk =   0.0200000
        k(   19) = (   0.4500092   0.2020712   0.0000000), wk =   0.0200000
        k(   20) = (   0.5000102   0.2309385   0.0000000), wk =   0.0200000
        k(   21) = (  -0.4500092  -0.3175405   0.0000000), wk =   0.0200000
        k(   22) = (  -0.4000081  -0.2886732   0.0000000), wk =   0.0200000
        k(   23) = (  -0.3500071  -0.2598059   0.0000000), wk =   0.0200000
        k(   24) = (  -0.3000061  -0.2309385   0.0000000), wk =   0.0200000
        k(   25) = (  -0.2500051  -0.2020712   0.0000000), wk =   0.0200000
        k(   26) = (  -0.2000041  -0.1732039   0.0000000), wk =   0.0200000
        k(   27) = (  -0.1500031  -0.1443366   0.0000000), wk =   0.0200000
        k(   28) = (  -0.1000020  -0.1154693   0.0000000), wk =   0.0200000
        k(   29) = (  -0.0500010  -0.0866020   0.0000000), wk =   0.0200000
        k(   30) = (  -0.0000000  -0.0577346   0.0000000), wk =   0.0100000
        k(   31) = (   0.2000041   0.0000000   0.0000000), wk =   0.0100000
        k(   32) = (   0.2500051   0.0288673   0.0000000), wk =   0.0200000
        k(   33) = (   0.3000061   0.0577346   0.0000000), wk =   0.0200000
        k(   34) = (   0.3500071   0.0866020   0.0000000), wk =   0.0200000
        k(   35) = (   0.4000081   0.1154693   0.0000000), wk =   0.0200000
        k(   36) = (   0.4500092   0.1443366   0.0000000), wk =   0.0200000
        k(   37) = (   0.5000102   0.1732039   0.0000000), wk =   0.0200000
        k(   38) = (   0.5500112   0.2020712   0.0000000), wk =   0.0200000
        k(   39) = (  -0.4000081  -0.3464078   0.0000000), wk =   0.0200000
        k(   40) = (  -0.3500071  -0.3175405   0.0000000), wk =   0.0200000
        k(   41) = (  -0.3000061  -0.2886732   0.0000000), wk =   0.0200000
        k(   42) = (  -0.2500051  -0.2598059   0.0000000), wk =   0.0200000
        k(   43) = (  -0.2000041  -0.2309385   0.0000000), wk =   0.0200000
        k(   44) = (  -0.1500031  -0.2020712   0.0000000), wk =   0.0200000
        k(   45) = (  -0.1000020  -0.1732039   0.0000000), wk =   0.0200000
        k(   46) = (  -0.0500010  -0.1443366   0.0000000), wk =   0.0200000
        k(   47) = (   0.0000000  -0.1154693   0.0000000), wk =   0.0100000
        k(   48) = (   0.3000061   0.0000000   0.0000000), wk =   0.0100000
        k(   49) = (   0.3500071   0.0288673   0.0000000), wk =   0.0200000
        k(   50) = (   0.4000081   0.0577346   0.0000000), wk =   0.0200000
        k(   51) = (   0.4500092   0.0866020   0.0000000), wk =   0.0200000
        k(   52) = (   0.5000102   0.1154693   0.0000000), wk =   0.0200000
        k(   53) = (   0.5500112   0.1443366   0.0000000), wk =   0.0200000
        k(   54) = (   0.6000122   0.1732039   0.0000000), wk =   0.0200000
        k(   55) = (  -0.3500071  -0.3752751   0.0000000), wk =   0.0200000
        k(   56) = (  -0.3000061  -0.3464078   0.0000000), wk =   0.0200000
        k(   57) = (  -0.2500051  -0.3175405   0.0000000), wk =   0.0200000
        k(   58) = (  -0.2000041  -0.2886732   0.0000000), wk =   0.0200000
        k(   59) = (  -0.1500031  -0.2598059   0.0000000), wk =   0.0200000
        k(   60) = (  -0.1000020  -0.2309385   0.0000000), wk =   0.0200000
[...]
        k(   97) = (   0.7500153   0.0288673   0.0000000), wk =   0.0200000
        k(   98) = (   0.8000163   0.0577346   0.0000000), wk =   0.0200000
        k(   99) = (  -0.1500031  -0.4907444   0.0000000), wk =   0.0200000
        k(  100) = (  -0.1000020  -0.4618771   0.0000000), wk =   0.0200000
        k(  101) = (  -0.0500010  -0.4330098   0.0000000), wk =   0.0200000
        k(  102) = (   0.0000000  -0.4041424   0.0000000), wk =   0.0100000
        k(  103) = (   0.8000163   0.0000000   0.0000000), wk =   0.0100000
        k(  104) = (   0.8500173   0.0288673   0.0000000), wk =   0.0200000
        k(  105) = (  -0.1000020  -0.5196117   0.0000000), wk =   0.0200000
        k(  106) = (  -0.0500010  -0.4907444   0.0000000), wk =   0.0200000
        k(  107) = (   0.0000000  -0.4618771   0.0000000), wk =   0.0100000
        k(  108) = (   0.9000183   0.0000000   0.0000000), wk =   0.0100000
        k(  109) = (  -0.0500010  -0.5484790   0.0000000), wk =   0.0200000
        k(  110) = (   0.0000000  -0.5196117   0.0000000), wk =   0.0100000
        k(  111) = (  -1.0000203   0.0000000   0.0000000), wk =   0.0050000

                       cryst. coord.
        k(    1) = (   0.0000000   0.0000000   0.0000000), wk =   0.0050000
        k(    2) = (  -0.0000000   0.0500000   0.0000000), wk =   0.0200000
        k(    3) = (  -0.0000000   0.1000000   0.0000000), wk =   0.0200000
        k(    4) = (  -0.0000000   0.1500000   0.0000000), wk =   0.0200000
        k(    5) = (  -0.0000000   0.2000000   0.0000000), wk =   0.0200000
        k(    6) = (  -0.0000000   0.2500000   0.0000000), wk =   0.0200000
        k(    7) = (  -0.0000000   0.3000000   0.0000000), wk =   0.0200000
        k(    8) = (  -0.0000000   0.3500000   0.0000000), wk =   0.0200000
        k(    9) = (  -0.0000000   0.4000000   0.0000000), wk =   0.0200000
        k(   10) = (  -0.0000000   0.4500000   0.0000000), wk =   0.0200000
        k(   11) = (   0.0000000  -0.5000000   0.0000000), wk =   0.0100000
        k(   12) = (   0.0500000   0.0500000   0.0000000), wk =   0.0100000
        k(   13) = (   0.0500000   0.1000000   0.0000000), wk =   0.0200000
        k(   14) = (   0.0500000   0.1500000   0.0000000), wk =   0.0200000
        k(   15) = (   0.0500000   0.2000000   0.0000000), wk =   0.0200000
        k(   16) = (   0.0500000   0.2500000   0.0000000), wk =   0.0200000
        k(   17) = (   0.0500000   0.3000000   0.0000000), wk =   0.0200000
        k(   18) = (   0.0500000   0.3500000   0.0000000), wk =   0.0200000
        k(   19) = (   0.0500000   0.4000000   0.0000000), wk =   0.0200000
        k(   20) = (   0.0500000   0.4500000   0.0000000), wk =   0.0200000
        k(   21) = (   0.0500000  -0.5000000   0.0000000), wk =   0.0200000
        k(   22) = (   0.0500000  -0.4500000   0.0000000), wk =   0.0200000
        k(   23) = (   0.0500000  -0.4000000   0.0000000), wk =   0.0200000
        k(   24) = (   0.0500000  -0.3500000   0.0000000), wk =   0.0200000
        k(   25) = (   0.0500000  -0.3000000   0.0000000), wk =   0.0200000
        k(   26) = (   0.0500000  -0.2500000   0.0000000), wk =   0.0200000
        k(   27) = (   0.0500000  -0.2000000   0.0000000), wk =   0.0200000
        k(   28) = (   0.0500000  -0.1500000   0.0000000), wk =   0.0200000
        k(   29) = (   0.0500000  -0.1000000   0.0000000), wk =   0.0200000
        k(   30) = (   0.0500000  -0.0500000   0.0000000), wk =   0.0100000
        k(   31) = (   0.1000000   0.1000000   0.0000000), wk =   0.0100000
        k(   32) = (   0.1000000   0.1500000   0.0000000), wk =   0.0200000
        k(   33) = (   0.1000000   0.2000000   0.0000000), wk =   0.0200000
        k(   34) = (   0.1000000   0.2500000   0.0000000), wk =   0.0200000
        k(   35) = (   0.1000000   0.3000000   0.0000000), wk =   0.0200000
        k(   36) = (   0.1000000   0.3500000   0.0000000), wk =   0.0200000
        k(   37) = (   0.1000000   0.4000000   0.0000000), wk =   0.0200000
        k(   38) = (   0.1000000   0.4500000   0.0000000), wk =   0.0200000
        k(   39) = (   0.1000000  -0.5000000   0.0000000), wk =   0.0200000
        k(   40) = (   0.1000000  -0.4500000   0.0000000), wk =   0.0200000
        k(   41) = (   0.1000000  -0.4000000   0.0000000), wk =   0.0200000
        k(   42) = (   0.1000000  -0.3500000   0.0000000), wk =   0.0200000
        k(   43) = (   0.1000000  -0.3000000   0.0000000), wk =   0.0200000
        k(   44) = (   0.1000000  -0.2500000   0.0000000), wk =   0.0200000
        k(   45) = (   0.1000000  -0.2000000   0.0000000), wk =   0.0200000
        k(   46) = (   0.1000000  -0.1500000   0.0000000), wk =   0.0200000
        k(   47) = (   0.1000000  -0.1000000   0.0000000), wk =   0.0100000
        k(   48) = (   0.1500000   0.1500000   0.0000000), wk =   0.0100000
        k(   49) = (   0.1500000   0.2000000   0.0000000), wk =   0.0200000
        k(   50) = (   0.1500000   0.2500000   0.0000000), wk =   0.0200000
        k(   51) = (   0.1500000   0.3000000   0.0000000), wk =   0.0200000
        k(   52) = (   0.1500000   0.3500000   0.0000000), wk =   0.0200000
        k(   53) = (   0.1500000   0.4000000   0.0000000), wk =   0.0200000
        k(   54) = (   0.1500000   0.4500000   0.0000000), wk =   0.0200000
        k(   55) = (   0.1500000  -0.5000000   0.0000000), wk =   0.0200000
        k(   56) = (   0.1500000  -0.4500000   0.0000000), wk =   0.0200000
        k(   57) = (   0.1500000  -0.4000000   0.0000000), wk =   0.0200000
        k(   58) = (   0.1500000  -0.3500000   0.0000000), wk =   0.0200000
        k(   59) = (   0.1500000  -0.3000000   0.0000000), wk =   0.0200000
        k(   60) = (   0.1500000  -0.2500000   0.0000000), wk =   0.0200000
[...]
        k(   97) = (   0.3500000   0.4000000   0.0000000), wk =   0.0200000
        k(   98) = (   0.3500000   0.4500000   0.0000000), wk =   0.0200000
        k(   99) = (   0.3500000  -0.5000000   0.0000000), wk =   0.0200000
        k(  100) = (   0.3500000  -0.4500000   0.0000000), wk =   0.0200000
        k(  101) = (   0.3500000  -0.4000000   0.0000000), wk =   0.0200000
        k(  102) = (   0.3500000  -0.3500000   0.0000000), wk =   0.0100000
        k(  103) = (   0.4000000   0.4000000   0.0000000), wk =   0.0100000
        k(  104) = (   0.4000000   0.4500000   0.0000000), wk =   0.0200000
        k(  105) = (   0.4000000  -0.5000000   0.0000000), wk =   0.0200000
        k(  106) = (   0.4000000  -0.4500000   0.0000000), wk =   0.0200000
        k(  107) = (   0.4000000  -0.4000000   0.0000000), wk =   0.0100000
        k(  108) = (   0.4500000   0.4500000   0.0000000), wk =   0.0100000
        k(  109) = (   0.4500000  -0.5000000   0.0000000), wk =   0.0200000
        k(  110) = (   0.4500000  -0.4500000   0.0000000), wk =   0.0100000
        k(  111) = (  -0.5000000  -0.5000000   0.0000000), wk =   0.0050000

     Initial potential from superposition of free atoms

     starting charge    7.99888, renormalised to    8.00000

     negative rho (up, down):  2.826E-06 0.000E+00
     Starting wfcs are    8 randomized atomic wfcs

     Self-consistent Calculation

     iteration #  1     ecut=    70.00 Ry     beta= 0.40
     Davidson diagonalization with overlap
     ethr =  1.00E-02,  avg # of iterations =  4.5

     Threshold (ethr) on eigenvalues was too large:
     Diagonalizing with lowered threshold

     Davidson diagonalization with overlap
     ethr =  8.06E-04,  avg # of iterations =  1.5

     negative rho (up, down):  1.916E-06 0.000E+00

     total energy              =     -22.74447935 Ry
     Harris-Foulkes estimate   =     -22.76064233 Ry
     estimated scf accuracy    <       0.06347466 Ry

[...]

     iteration #  4     ecut=    70.00 Ry     beta= 0.40
     Davidson diagonalization with overlap
     c_bands:  1 eigenvalues not converged
     ethr =  7.09E-06,  avg # of iterations =  5.2

[...]

     total energy              =     -22.74304965 Ry
     Harris-Foulkes estimate   =     -22.74304965 Ry
     estimated scf accuracy    <          1.8E-09 Ry

     iteration #  9     ecut=    70.00 Ry     beta= 0.40
     Davidson diagonalization with overlap
     ethr =  2.20E-11,  avg # of iterations =  2.3

[...]

     End of self-consistent calculation

          k = 0.0000 0.0000 0.0000 ( 10513 PWs)   bands (ev):

   -13.1132  -4.8190  -3.5568  -3.5559  -0.4363   0.8103   0.8108   1.3214

     occupation numbers
     1.0000   1.0000   1.0000   1.0000   0.0000   0.0000   0.0000   0.0000

[...]

          k =-0.5000-0.2887 0.0000 ( 10564 PWs)   bands (ev):

[...]

          k = 0.0000-0.5196 0.0000 ( 10583 PWs)   bands (ev):

[...]

          k =-1.0000 0.0000 0.0000 ( 10564 PWs)   bands (ev):

   -10.9457  -9.2846  -4.8681  -2.7143  -1.1146  -1.0416   4.1203   4.6621

     occupation numbers
     1.0000   1.0000   1.0000   1.0000   0.0000   0.0000   0.0000   0.0000

     the Fermi energy is    -1.7887 ev

!    total energy              =     -22.74304965 Ry
     Harris-Foulkes estimate   =     -22.74304965 Ry
     estimated scf accuracy    <          7.9E-12 Ry

     The total energy is the sum of the following terms:

     one-electron contribution =     -38.15349034 Ry
     hartree contribution      =      20.27391685 Ry
     xc contribution           =     -12.16016158 Ry
     ewald contribution        =       7.29658248 Ry
     smearing contrib. (-TS)   =       0.00010295 Ry

     convergence has been achieved in   9 iterations

     negative rho (up, down):  2.048E-06 0.000E+00

     Forces acting on atoms (cartesian axes, Ry/au):

     atom    1 type  1   force =     0.00000000    0.00005826    0.00000000
     atom    2 type  1   force =     0.00000000   -0.00005826    0.00000000
     The non-local contrib.  to forces
     atom    1 type  1   force =     0.00000000    0.00003101    0.00000000
     atom    2 type  1   force =     0.00000000   -0.00003588    0.00000000
     The ionic contribution  to forces
     atom    1 type  1   force =    -0.00000000    0.00007594   -0.00000000
     atom    2 type  1   force =     0.00000000   -0.00007594   -0.00000000
     The local contribution  to forces
     atom    1 type  1   force =     0.00000000   -0.00004491    0.00000000
     atom    2 type  1   force =     0.00000000    0.00004949    0.00000000
     The core correction contribution to forces
     atom    1 type  1   force =     0.00000000   -0.00001293    0.00000000
     atom    2 type  1   force =    -0.00000000   -0.00000576   -0.00000000
     The Hubbard contrib.    to forces
     atom    1 type  1   force =     0.00000000    0.00000000    0.00000000
     atom    2 type  1   force =     0.00000000    0.00000000    0.00000000
     The SCF correction term to forces
     atom    1 type  1   force =    -0.00000000   -0.00000028    0.00000000
     atom    2 type  1   force =    -0.00000000    0.00000041    0.00000000

     Total force =     0.000082     Total SCF correction =     0.000000

     Computing stress (Cartesian axis) and pressure

     negative rho (up, down):  2.048E-06 0.000E+00
          total   stress  (Ry/bohr**3)                   (kbar)     P=    0.04
   0.00000037   0.00000000   0.00000000          0.05      0.00      0.00
   0.00000000   0.00000043   0.00000000          0.00      0.06      0.00
   0.00000000   0.00000000   0.00000001          0.00      0.00      0.00

     kinetic stress (kbar)    497.45      0.00      0.00
                                0.00    497.42      0.00
                                0.00      0.00    627.80

     local   stress (kbar)  -6123.62     -0.00     -0.00
                               -0.00  -6123.77     -0.00
                               -0.00     -0.00   6345.93

     nonloc. stress (kbar)    428.75      0.00      0.00
                                0.00    428.77      0.00
                                0.00      0.00    365.42

     hartree stress (kbar)   2718.79      0.00      0.00
                                0.00   2718.81      0.00
                                0.00      0.00  -2644.37

     exc-cor stress (kbar)    753.94      0.00      0.00
                                0.00    753.95      0.00
                                0.00      0.00    745.30

     corecor stress (kbar)  -1001.12     -0.00      0.00
                               -0.00  -1001.13     -0.00
                                0.00     -0.00   -993.47

     ewald   stress (kbar)   2725.87      0.00     -0.00
                                0.00   2726.02     -0.00
                               -0.00     -0.00  -4446.60

     hubbard stress (kbar)      0.00      0.00      0.00
                                0.00      0.00      0.00
                                0.00      0.00      0.00

     london  stress (kbar)      0.00      0.00      0.00
                                0.00      0.00      0.00
                                0.00      0.00      0.00

     DFT-D3  stress (kbar)      0.00      0.00      0.00
                                0.00      0.00      0.00
                                0.00      0.00      0.00

     XDM     stress (kbar)      0.00      0.00      0.00
                                0.00      0.00      0.00
                                0.00      0.00      0.00

     dft-nl  stress (kbar)      0.00      0.00      0.00
                                0.00      0.00      0.00
                                0.00      0.00      0.00

     TS-vdW  stress (kbar)      0.00      0.00      0.00
                                0.00      0.00      0.00
                                0.00      0.00      0.00

     Writing output data file silicene.save/

     General routines

     Parallel routines

   This run was terminated on:   1:36:58  23Sep2023

   JOB DONE.