     Program PWSCF v.6.4.1 starts on 22Sep2023 at 21:36:16

     Reading input from silicene_scf_kpoints-1.in

     Current dimensions of program PWSCF are:
     Max number of different atomic species (ntypx) = 10
     Max number of k-points (npk) =  40000
     Max angular momentum in pseudopotentials (lmaxx) =  3
     Message from routine read_upf::
     Pseudo file Si.pbe-n-rrkjus_psl.1.0.0.UPF has been fixed on the fly.
To avoid this message in the future, permanently fix
 your pseudo files following these instructions:

     Subspace diagonalization in iterative solution of the eigenvalue problem:
     a serial algorithm will be used

     Message from routine setup:
     DEPRECATED: symmetry with ibrav=0, use correct ibrav instead

     bravais-lattice index     =            0
     lattice parameter (alat)  =       7.2375  a.u.
     unit-cell volume          =    1032.2806 (a.u.)^3
     number of atoms/cell      =            2
     number of atomic types    =            1
     number of electrons       =         8.00
     number of Kohn-Sham states=            8
     kinetic-energy cutoff     =      30.0000  Ry
     charge density cutoff     =     240.0000  Ry
     convergence threshold     =      4.0E-10
     mixing beta               =       0.4000
     number of iterations used =            8  plain     mixing
     Exchange-correlation      = PBE ( 1  4  3  4 0 0)

     celldm(1)=   7.237514  celldm(2)=   0.000000  celldm(3)=   0.000000
     celldm(4)=   0.000000  celldm(5)=   0.000000  celldm(6)=   0.000000

     crystal axes: (cart. coord. in units of alat)
               a(1) = (   0.502620  -0.864507   0.000000 )
               a(2) = (   0.502620   0.864507   0.000000 )
               a(3) = (   0.000000   0.000000   3.133218 )

     reciprocal axes: (cart. coord. in units 2 pi/alat)
               b(1) = (  0.994786 -0.578364  0.000000 )
               b(2) = (  0.994786  0.578364 -0.000000 )
               b(3) = ( -0.000000  0.000000  0.319161 )

     PseudoPot. # 1 for Si read from file:
     /home/meyn/q-e-qe-7.1/pseudo/Si.pbe-n-rrkjus_psl.1.0.0.UPF
     MD5 check sum: 56671f82560c68743c116fe4c72cdc4c
     Pseudo is Ultrasoft + core correction, Zval =  4.0
     Generated using "atomic" code by A. Dal Corso v.5.1.2
     Using radial grid of 1141 points,  6 beta functions with:
                l(1) =   0
                l(2) =   0
                l(3) =   1
                l(4) =   1
                l(5) =   2
                l(6) =   2
     Q(r) pseudized with 0 coefficients

     atomic species   valence    mass     pseudopotential
        Si             4.00    28.08550     Si( 1.00)

      4 Sym. Ops. (no inversion) found

                                    s                        frac. trans.

      isym =  1     identity

 cryst.   s( 1) = (     1          0          0      )
                  (     0          1          0      )
                  (     0          0          1      )

 cart.    s( 1) = (  1.0000000  0.0000000  0.0000000 )
                  (  0.0000000  1.0000000  0.0000000 )
                  (  0.0000000  0.0000000  1.0000000 )

      isym =  2     180 deg rotation - cart. axis [0,1,0]

[...]

      isym =  3     inv. 180 deg rotation - cart. axis [0,0,1]

[...]

      isym =  4     inv. 180 deg rotation - cart. axis [1,0,0]

 cryst.   s( 4) = (     0         -1          0      )
                  (    -1          0          0      )
                  (     0          0          1      )

 cart.    s( 4) = ( -1.0000000  0.0000000  0.0000000 )
                  (  0.0000000  1.0000000  0.0000000 )
                  (  0.0000000  0.0000000  1.0000000 )

   Cartesian axes

     site n.     atom                  positions (alat units)
         1           Si  tau(   1) = (   0.0000000   0.0000000   0.0000000  )
         2           Si  tau(   2) = (   0.5026205   0.2939324   0.0000000  )

   Crystallographic axes

     site n.     atom                  positions (cryst. coord.)
         1           Si  tau(   1) = (  0.0000000  0.0000000  0.0000000  )
         2           Si  tau(   2) = (  0.3300000  0.6700000  0.0000000  )

     number of k points=     1  Marzari-Vanderbilt smearing, width (Ry)=  0.0147
                       cart. coord. in units 2pi/alat
        k(    1) = (   0.0000000   0.0000000   0.0000000), wk =   2.0000000

                       cryst. coord.
        k(    1) = (   0.0000000   0.0000000   0.0000000), wk =   2.0000000

     Initial potential from superposition of free atoms

     starting charge    7.99888, renormalised to    8.00000

     negative rho (up, down):  3.014E-06 0.000E+00
     Starting wfcs are    8 randomized atomic wfcs

     Self-consistent Calculation

     iteration #  1     ecut=    30.00 Ry     beta= 0.40
     Davidson diagonalization with overlap
     ethr =  1.00E-02,  avg # of iterations =  5.0

     negative rho (up, down):  2.513E-07 0.000E+00

     total energy              =     -22.31256998 Ry
     Harris-Foulkes estimate   =     -22.36586074 Ry
     estimated scf accuracy    <       0.22350268 Ry

[...]

     total energy              =     -22.30341296 Ry
     Harris-Foulkes estimate   =     -22.30341296 Ry
     estimated scf accuracy    <          5.0E-10 Ry

     iteration # 14     ecut=    30.00 Ry     beta= 0.40
     Davidson diagonalization with overlap
     ethr =  6.20E-12,  avg # of iterations =  4.0

[...]

     End of self-consistent calculation

          k = 0.0000 0.0000 0.0000 (  2867 PWs)   bands (ev):

   -12.8420  -4.7729  -2.9394  -2.8961   0.4869   1.1620   1.3002   1.3657

     occupation numbers
     1.0000   1.0000   1.0392   0.9608   0.0000   0.0000   0.0000   0.0000

     the Fermi energy is    -2.7306 ev

!    total energy              =     -22.30341296 Ry
     Harris-Foulkes estimate   =     -22.30341296 Ry
     estimated scf accuracy    <          7.5E-11 Ry

     The total energy is the sum of the following terms:

     one-electron contribution =     -39.18307704 Ry
     hartree contribution      =      21.22654590 Ry
     xc contribution           =     -12.33638792 Ry
     ewald contribution        =       7.98458886 Ry
     smearing contrib. (-TS)   =       0.00491722 Ry

     convergence has been achieved in  14 iterations

     negative rho (up, down):  1.308E-06 0.000E+00

     Forces acting on atoms (cartesian axes, Ry/au):

     atom    1 type  1   force =     0.00000000    0.00769819    0.00000000
     atom    2 type  1   force =     0.00000000   -0.00769819    0.00000000
     The non-local contrib.  to forces
     atom    1 type  1   force =     0.00000000    0.04368021    0.00000000
     atom    2 type  1   force =     0.00000000   -0.04371658    0.00000000
     The ionic contribution  to forces
     atom    1 type  1   force =    -0.00000000    0.06637603   -0.00000000
     atom    2 type  1   force =     0.00000000   -0.06637603   -0.00000000
     The local contribution  to forces
     atom    1 type  1   force =     0.00000000   -0.09741896    0.00000000
     atom    2 type  1   force =     0.00000000    0.09744175    0.00000000
     The core correction contribution to forces
     atom    1 type  1   force =     0.00000000   -0.00499113    0.00000000
     atom    2 type  1   force =    -0.00000000    0.00490913    0.00000000
     The Hubbard contrib.    to forces
     atom    1 type  1   force =     0.00000000    0.00000000    0.00000000
     atom    2 type  1   force =     0.00000000    0.00000000    0.00000000
     The SCF correction term to forces
     atom    1 type  1   force =    -0.00000000    0.00000426   -0.00000000
     atom    2 type  1   force =     0.00000000   -0.00000423   -0.00000000

     Total force =     0.010887     Total SCF correction =     0.000006

     Computing stress (Cartesian axis) and pressure

     negative rho (up, down):  1.308E-06 0.000E+00
          total   stress  (Ry/bohr**3)                   (kbar)     P=   26.45
   0.00020360   0.00000000   0.00000000         29.95      0.00      0.00
   0.00000000   0.00033599   0.00000000          0.00     49.43      0.00
   0.00000000   0.00000000  -0.00000027          0.00      0.00     -0.04

     kinetic stress (kbar)    639.01     -0.00     -0.00
                                0.00    664.52      0.00
                                0.00     -0.00    652.43

     local   stress (kbar)  -6579.35     -0.00     -0.00
                               -0.00  -6655.78     -0.00
                               -0.00     -0.00   6888.47

     nonloc. stress (kbar)    392.37     -0.00      0.00
                                0.00    407.88      0.00
                                0.00      0.00    296.25

     hartree stress (kbar)   2919.42      0.00      0.00
                                0.00   2927.99      0.00
                                0.00      0.00  -2822.53

     exc-cor stress (kbar)    771.69      0.00     -0.00
                                0.00    772.37     -0.00
                               -0.00     -0.00    762.42

     corecor stress (kbar)  -1036.92     -0.00      0.00
                               -0.00  -1039.41      0.00
                                0.00      0.00  -1019.35

     ewald   stress (kbar)   2923.73      0.00     -0.00
                                0.00   2971.85     -0.00
                               -0.00     -0.00  -4757.74

     hubbard stress (kbar)      0.00      0.00      0.00
                                0.00      0.00      0.00
                                0.00      0.00      0.00

     london  stress (kbar)      0.00      0.00      0.00
                                0.00      0.00      0.00
                                0.00      0.00      0.00

     DFT-D3  stress (kbar)      0.00      0.00      0.00
                                0.00      0.00      0.00
                                0.00      0.00      0.00

     XDM     stress (kbar)      0.00      0.00      0.00
                                0.00      0.00      0.00
                                0.00      0.00      0.00

     dft-nl  stress (kbar)      0.00      0.00      0.00
                                0.00      0.00      0.00
                                0.00      0.00      0.00

     TS-vdW  stress (kbar)      0.00      0.00      0.00
                                0.00      0.00      0.00
                                0.00      0.00      0.00

     Writing output data file silicene.save/

     General routines

     Parallel routines

   This run was terminated on:  21:36:27  22Sep2023

   JOB DONE.