     Program PWSCF v.6.4.1 starts on 22Sep2023 at 21:37:36

     Reading input from silicene_scf_kpoints-9.in

     Current dimensions of program PWSCF are:
     Max number of different atomic species (ntypx) = 10
     Max number of k-points (npk) =  40000
     Max angular momentum in pseudopotentials (lmaxx) =  3
     Message from routine read_upf::
     Pseudo file Si.pbe-n-rrkjus_psl.1.0.0.UPF has been fixed on the fly.
To avoid this message in the future, permanently fix
 your pseudo files following these instructions:

     Subspace diagonalization in iterative solution of the eigenvalue problem:
     a serial algorithm will be used

     Message from routine setup:
     DEPRECATED: symmetry with ibrav=0, use correct ibrav instead

     bravais-lattice index     =            0
     lattice parameter (alat)  =       7.2375  a.u.
     unit-cell volume          =    1032.2806 (a.u.)^3
     number of atoms/cell      =            2
     number of atomic types    =            1
     number of electrons       =         8.00
     number of Kohn-Sham states=            8
     kinetic-energy cutoff     =      30.0000  Ry
     charge density cutoff     =     240.0000  Ry
     convergence threshold     =      4.0E-10
     mixing beta               =       0.4000
     number of iterations used =            8  plain     mixing
     Exchange-correlation      = PBE ( 1  4  3  4 0 0)

     celldm(1)=   7.237514  celldm(2)=   0.000000  celldm(3)=   0.000000
     celldm(4)=   0.000000  celldm(5)=   0.000000  celldm(6)=   0.000000

     crystal axes: (cart. coord. in units of alat)
               a(1) = (   0.502620  -0.864507   0.000000 )
               a(2) = (   0.502620   0.864507   0.000000 )
               a(3) = (   0.000000   0.000000   3.133218 )

     reciprocal axes: (cart. coord. in units 2 pi/alat)
               b(1) = (  0.994786 -0.578364  0.000000 )
               b(2) = (  0.994786  0.578364 -0.000000 )
               b(3) = ( -0.000000  0.000000  0.319161 )

     PseudoPot. # 1 for Si read from file:
     /home/meyn/q-e-qe-7.1/pseudo/Si.pbe-n-rrkjus_psl.1.0.0.UPF
     MD5 check sum: 56671f82560c68743c116fe4c72cdc4c
     Pseudo is Ultrasoft + core correction, Zval =  4.0
     Generated using "atomic" code by A. Dal Corso v.5.1.2
     Using radial grid of 1141 points,  6 beta functions with:
                l(1) =   0
                l(2) =   0
                l(3) =   1
                l(4) =   1
                l(5) =   2
                l(6) =   2
     Q(r) pseudized with 0 coefficients

     atomic species   valence    mass     pseudopotential
        Si             4.00    28.08550     Si( 1.00)

      4 Sym. Ops. (no inversion) found

                                    s                        frac. trans.

      isym =  1     identity

 cryst.   s( 1) = (     1          0          0      )
                  (     0          1          0      )
                  (     0          0          1      )

 cart.    s( 1) = (  1.0000000  0.0000000  0.0000000 )
                  (  0.0000000  1.0000000  0.0000000 )
                  (  0.0000000  0.0000000  1.0000000 )

      isym =  2     180 deg rotation - cart. axis [0,1,0]

[...]

      isym =  3     inv. 180 deg rotation - cart. axis [0,0,1]

[...]

      isym =  4     inv. 180 deg rotation - cart. axis [1,0,0]

 cryst.   s( 4) = (     0         -1          0      )
                  (    -1          0          0      )
                  (     0          0          1      )

 cart.    s( 4) = ( -1.0000000  0.0000000  0.0000000 )
                  (  0.0000000  1.0000000  0.0000000 )
                  (  0.0000000  0.0000000  1.0000000 )

   Cartesian axes

     site n.     atom                  positions (alat units)
         1           Si  tau(   1) = (   0.0000000   0.0000000   0.0000000  )
         2           Si  tau(   2) = (   0.5026205   0.2939324   0.0000000  )

   Crystallographic axes

     site n.     atom                  positions (cryst. coord.)
         1           Si  tau(   1) = (  0.0000000  0.0000000  0.0000000  )
         2           Si  tau(   2) = (  0.3300000  0.6700000  0.0000000  )

     number of k points=   125  Marzari-Vanderbilt smearing, width (Ry)=  0.0147
                       cart. coord. in units 2pi/alat
        k(    1) = (   0.0000000   0.0000000   0.0000000), wk =   0.0027435
        k(    2) = (   0.0000000   0.0000000   0.0354623), wk =   0.0054870
        k(    3) = (   0.0000000   0.0000000   0.0709246), wk =   0.0054870
        k(    4) = (   0.0000000   0.0000000   0.1063869), wk =   0.0054870
        k(    5) = (   0.0000000   0.0000000   0.1418492), wk =   0.0054870
        k(    6) = (   0.1105318   0.0642627   0.0000000), wk =   0.0109739
        k(    7) = (   0.1105318   0.0642627   0.0354623), wk =   0.0219479
        k(    8) = (   0.1105318   0.0642627   0.0709246), wk =   0.0219479
        k(    9) = (   0.1105318   0.0642627   0.1063869), wk =   0.0219479
        k(   10) = (   0.1105318   0.0642627   0.1418492), wk =   0.0219479
        k(   11) = (   0.2210636   0.1285254   0.0000000), wk =   0.0109739
        k(   12) = (   0.2210636   0.1285254   0.0354623), wk =   0.0219479
        k(   13) = (   0.2210636   0.1285254   0.0709246), wk =   0.0219479
        k(   14) = (   0.2210636   0.1285254   0.1063869), wk =   0.0219479
        k(   15) = (   0.2210636   0.1285254   0.1418492), wk =   0.0219479
        k(   16) = (   0.3315955   0.1927881   0.0000000), wk =   0.0109739
        k(   17) = (   0.3315955   0.1927881   0.0354623), wk =   0.0219479
        k(   18) = (   0.3315955   0.1927881   0.0709246), wk =   0.0219479
        k(   19) = (   0.3315955   0.1927881   0.1063869), wk =   0.0219479
        k(   20) = (   0.3315955   0.1927881   0.1418492), wk =   0.0219479
        k(   21) = (   0.4421273   0.2570508   0.0000000), wk =   0.0109739
        k(   22) = (   0.4421273   0.2570508   0.0354623), wk =   0.0219479
        k(   23) = (   0.4421273   0.2570508   0.0709246), wk =   0.0219479
        k(   24) = (   0.4421273   0.2570508   0.1063869), wk =   0.0219479
        k(   25) = (   0.4421273   0.2570508   0.1418492), wk =   0.0219479
        k(   26) = (   0.2210636   0.0000000   0.0000000), wk =   0.0054870
        k(   27) = (   0.2210636   0.0000000   0.0354623), wk =   0.0109739
        k(   28) = (   0.2210636   0.0000000   0.0709246), wk =   0.0109739
        k(   29) = (   0.2210636   0.0000000   0.1063869), wk =   0.0109739
        k(   30) = (   0.2210636   0.0000000   0.1418492), wk =   0.0109739
        k(   31) = (   0.3315955   0.0642627   0.0000000), wk =   0.0109739
        k(   32) = (   0.3315955   0.0642627   0.0354623), wk =   0.0219479
        k(   33) = (   0.3315955   0.0642627   0.0709246), wk =   0.0219479
        k(   34) = (   0.3315955   0.0642627   0.1063869), wk =   0.0219479
        k(   35) = (   0.3315955   0.0642627   0.1418492), wk =   0.0219479
        k(   36) = (   0.4421273   0.1285254   0.0000000), wk =   0.0109739
        k(   37) = (   0.4421273   0.1285254   0.0354623), wk =   0.0219479
        k(   38) = (   0.4421273   0.1285254   0.0709246), wk =   0.0219479
        k(   39) = (   0.4421273   0.1285254   0.1063869), wk =   0.0219479
        k(   40) = (   0.4421273   0.1285254   0.1418492), wk =   0.0219479
        k(   41) = (   0.5526591   0.1927881   0.0000000), wk =   0.0109739
        k(   42) = (   0.5526591   0.1927881   0.0354623), wk =   0.0219479
        k(   43) = (   0.5526591   0.1927881   0.0709246), wk =   0.0219479
        k(   44) = (   0.5526591   0.1927881   0.1063869), wk =   0.0219479
        k(   45) = (   0.5526591   0.1927881   0.1418492), wk =   0.0219479
        k(   46) = (  -0.3315955  -0.3213134   0.0000000), wk =   0.0109739
        k(   47) = (  -0.3315955  -0.3213134   0.0354623), wk =   0.0219479
        k(   48) = (  -0.3315955  -0.3213134   0.0709246), wk =   0.0219479
        k(   49) = (  -0.3315955  -0.3213134   0.1063869), wk =   0.0219479
        k(   50) = (  -0.3315955  -0.3213134   0.1418492), wk =   0.0219479
        k(   51) = (  -0.2210636  -0.2570508   0.0000000), wk =   0.0109739
        k(   52) = (  -0.2210636  -0.2570508   0.0354623), wk =   0.0219479
        k(   53) = (  -0.2210636  -0.2570508   0.0709246), wk =   0.0219479
        k(   54) = (  -0.2210636  -0.2570508   0.1063869), wk =   0.0219479
        k(   55) = (  -0.2210636  -0.2570508   0.1418492), wk =   0.0219479
        k(   56) = (  -0.1105318  -0.1927881   0.0000000), wk =   0.0109739
        k(   57) = (  -0.1105318  -0.1927881   0.0354623), wk =   0.0219479
        k(   58) = (  -0.1105318  -0.1927881   0.0709246), wk =   0.0219479
        k(   59) = (  -0.1105318  -0.1927881   0.1063869), wk =   0.0219479
        k(   60) = (  -0.1105318  -0.1927881   0.1418492), wk =   0.0219479
[...]
        k(  111) = (  -0.0000000  -0.3855761   0.0000000), wk =   0.0054870
        k(  112) = (  -0.0000000  -0.3855761   0.0354623), wk =   0.0109739
        k(  113) = (  -0.0000000  -0.3855761   0.0709246), wk =   0.0109739
        k(  114) = (  -0.0000000  -0.3855761   0.1063869), wk =   0.0109739
        k(  115) = (  -0.0000000  -0.3855761   0.1418492), wk =   0.0109739
        k(  116) = (   0.8842546   0.0000000   0.0000000), wk =   0.0054870
        k(  117) = (   0.8842546   0.0000000   0.0354623), wk =   0.0109739
        k(  118) = (   0.8842546   0.0000000   0.0709246), wk =   0.0109739
        k(  119) = (   0.8842546   0.0000000   0.1063869), wk =   0.0109739
        k(  120) = (   0.8842546   0.0000000   0.1418492), wk =   0.0109739
        k(  121) = (   0.0000000  -0.5141015   0.0000000), wk =   0.0054870
        k(  122) = (   0.0000000  -0.5141015   0.0354623), wk =   0.0109739
        k(  123) = (   0.0000000  -0.5141015   0.0709246), wk =   0.0109739
        k(  124) = (   0.0000000  -0.5141015   0.1063869), wk =   0.0109739
        k(  125) = (   0.0000000  -0.5141015   0.1418492), wk =   0.0109739

                       cryst. coord.
        k(    1) = (   0.0000000   0.0000000   0.0000000), wk =   0.0027435
        k(    2) = (   0.0000000   0.0000000   0.1111111), wk =   0.0054870
        k(    3) = (   0.0000000   0.0000000   0.2222222), wk =   0.0054870
        k(    4) = (   0.0000000   0.0000000   0.3333333), wk =   0.0054870
        k(    5) = (   0.0000000   0.0000000   0.4444444), wk =   0.0054870
        k(    6) = (   0.0000000   0.1111111   0.0000000), wk =   0.0109739
        k(    7) = (   0.0000000   0.1111111   0.1111111), wk =   0.0219479
        k(    8) = (   0.0000000   0.1111111   0.2222222), wk =   0.0219479
        k(    9) = (   0.0000000   0.1111111   0.3333333), wk =   0.0219479
        k(   10) = (   0.0000000   0.1111111   0.4444444), wk =   0.0219479
        k(   11) = (   0.0000000   0.2222222   0.0000000), wk =   0.0109739
        k(   12) = (   0.0000000   0.2222222   0.1111111), wk =   0.0219479
        k(   13) = (   0.0000000   0.2222222   0.2222222), wk =   0.0219479
        k(   14) = (   0.0000000   0.2222222   0.3333333), wk =   0.0219479
        k(   15) = (   0.0000000   0.2222222   0.4444444), wk =   0.0219479
        k(   16) = (   0.0000000   0.3333333   0.0000000), wk =   0.0109739
        k(   17) = (   0.0000000   0.3333333   0.1111111), wk =   0.0219479
        k(   18) = (   0.0000000   0.3333333   0.2222222), wk =   0.0219479
        k(   19) = (   0.0000000   0.3333333   0.3333333), wk =   0.0219479
        k(   20) = (   0.0000000   0.3333333   0.4444444), wk =   0.0219479
        k(   21) = (   0.0000000   0.4444444   0.0000000), wk =   0.0109739
        k(   22) = (   0.0000000   0.4444444   0.1111111), wk =   0.0219479
        k(   23) = (   0.0000000   0.4444444   0.2222222), wk =   0.0219479
        k(   24) = (   0.0000000   0.4444444   0.3333333), wk =   0.0219479
        k(   25) = (   0.0000000   0.4444444   0.4444444), wk =   0.0219479
        k(   26) = (   0.1111111   0.1111111   0.0000000), wk =   0.0054870
        k(   27) = (   0.1111111   0.1111111   0.1111111), wk =   0.0109739
        k(   28) = (   0.1111111   0.1111111   0.2222222), wk =   0.0109739
        k(   29) = (   0.1111111   0.1111111   0.3333333), wk =   0.0109739
        k(   30) = (   0.1111111   0.1111111   0.4444444), wk =   0.0109739
        k(   31) = (   0.1111111   0.2222222   0.0000000), wk =   0.0109739
        k(   32) = (   0.1111111   0.2222222   0.1111111), wk =   0.0219479
        k(   33) = (   0.1111111   0.2222222   0.2222222), wk =   0.0219479
        k(   34) = (   0.1111111   0.2222222   0.3333333), wk =   0.0219479
        k(   35) = (   0.1111111   0.2222222   0.4444444), wk =   0.0219479
        k(   36) = (   0.1111111   0.3333333   0.0000000), wk =   0.0109739
        k(   37) = (   0.1111111   0.3333333   0.1111111), wk =   0.0219479
        k(   38) = (   0.1111111   0.3333333   0.2222222), wk =   0.0219479
        k(   39) = (   0.1111111   0.3333333   0.3333333), wk =   0.0219479
        k(   40) = (   0.1111111   0.3333333   0.4444444), wk =   0.0219479
        k(   41) = (   0.1111111   0.4444444   0.0000000), wk =   0.0109739
        k(   42) = (   0.1111111   0.4444444   0.1111111), wk =   0.0219479
        k(   43) = (   0.1111111   0.4444444   0.2222222), wk =   0.0219479
        k(   44) = (   0.1111111   0.4444444   0.3333333), wk =   0.0219479
        k(   45) = (   0.1111111   0.4444444   0.4444444), wk =   0.0219479
        k(   46) = (   0.1111111  -0.4444444   0.0000000), wk =   0.0109739
        k(   47) = (   0.1111111  -0.4444444   0.1111111), wk =   0.0219479
        k(   48) = (   0.1111111  -0.4444444   0.2222222), wk =   0.0219479
        k(   49) = (   0.1111111  -0.4444444   0.3333333), wk =   0.0219479
        k(   50) = (   0.1111111  -0.4444444   0.4444444), wk =   0.0219479
        k(   51) = (   0.1111111  -0.3333333   0.0000000), wk =   0.0109739
        k(   52) = (   0.1111111  -0.3333333   0.1111111), wk =   0.0219479
        k(   53) = (   0.1111111  -0.3333333   0.2222222), wk =   0.0219479
        k(   54) = (   0.1111111  -0.3333333   0.3333333), wk =   0.0219479
        k(   55) = (   0.1111111  -0.3333333   0.4444444), wk =   0.0219479
        k(   56) = (   0.1111111  -0.2222222   0.0000000), wk =   0.0109739
        k(   57) = (   0.1111111  -0.2222222   0.1111111), wk =   0.0219479
        k(   58) = (   0.1111111  -0.2222222   0.2222222), wk =   0.0219479
        k(   59) = (   0.1111111  -0.2222222   0.3333333), wk =   0.0219479
        k(   60) = (   0.1111111  -0.2222222   0.4444444), wk =   0.0219479
[...]
        k(  111) = (   0.3333333  -0.3333333   0.0000000), wk =   0.0054870
        k(  112) = (   0.3333333  -0.3333333   0.1111111), wk =   0.0109739
        k(  113) = (   0.3333333  -0.3333333   0.2222222), wk =   0.0109739
        k(  114) = (   0.3333333  -0.3333333   0.3333333), wk =   0.0109739
        k(  115) = (   0.3333333  -0.3333333   0.4444444), wk =   0.0109739
        k(  116) = (   0.4444444   0.4444444   0.0000000), wk =   0.0054870
        k(  117) = (   0.4444444   0.4444444   0.1111111), wk =   0.0109739
        k(  118) = (   0.4444444   0.4444444   0.2222222), wk =   0.0109739
        k(  119) = (   0.4444444   0.4444444   0.3333333), wk =   0.0109739
        k(  120) = (   0.4444444   0.4444444   0.4444444), wk =   0.0109739
        k(  121) = (   0.4444444  -0.4444444   0.0000000), wk =   0.0054870
        k(  122) = (   0.4444444  -0.4444444   0.1111111), wk =   0.0109739
        k(  123) = (   0.4444444  -0.4444444   0.2222222), wk =   0.0109739
        k(  124) = (   0.4444444  -0.4444444   0.3333333), wk =   0.0109739
        k(  125) = (   0.4444444  -0.4444444   0.4444444), wk =   0.0109739

     Initial potential from superposition of free atoms

     starting charge    7.99888, renormalised to    8.00000

     negative rho (up, down):  3.014E-06 0.000E+00
     Starting wfcs are    8 randomized atomic wfcs

     Self-consistent Calculation

     iteration #  1     ecut=    30.00 Ry     beta= 0.40
     Davidson diagonalization with overlap
     ethr =  1.00E-02,  avg # of iterations =  4.7

     Threshold (ethr) on eigenvalues was too large:
     Diagonalizing with lowered threshold

     Davidson diagonalization with overlap
     ethr =  9.19E-04,  avg # of iterations =  1.1

     negative rho (up, down):  1.251E-06 0.000E+00

     total energy              =     -22.74121512 Ry
     Harris-Foulkes estimate   =     -22.76112088 Ry
     estimated scf accuracy    <       0.07247788 Ry

[...]

     total energy              =     -22.73978840 Ry
     Harris-Foulkes estimate   =     -22.73978840 Ry
     estimated scf accuracy    <          4.8E-09 Ry

     iteration #  9     ecut=    30.00 Ry     beta= 0.40
     Davidson diagonalization with overlap
     ethr =  5.99E-11,  avg # of iterations =  2.2

[...]

     End of self-consistent calculation

          k = 0.0000 0.0000 0.0000 (  2867 PWs)   bands (ev):

   -13.2222  -4.8633  -3.4898  -3.3446   0.1596   0.8480   1.1121   1.3573

     occupation numbers
     1.0000   1.0000   1.0000   1.0000   0.0000   0.0000   0.0000   0.0000

[...]

          k =-0.3316-0.3213 0.0000 (  2858 PWs)   bands (ev):

[...]

          k =-0.0000-0.3856 0.1418 (  2868 PWs)   bands (ev):

[...]

          k = 0.0000-0.5141 0.1418 (  2870 PWs)   bands (ev):

   -11.0776  -9.1131  -4.7602  -2.7883  -0.9083  -0.7748   3.9576   5.0526

     occupation numbers
     1.0000   1.0000   1.0000   1.0000   0.0000   0.0000   0.0000   0.0000

     the Fermi energy is    -1.6182 ev

!    total energy              =     -22.73978840 Ry
     Harris-Foulkes estimate   =     -22.73978840 Ry
     estimated scf accuracy    <          4.0E-11 Ry

     The total energy is the sum of the following terms:

     one-electron contribution =     -39.49638355 Ry
     hartree contribution      =      20.98689840 Ry
     xc contribution           =     -12.21470718 Ry
     ewald contribution        =       7.98458886 Ry
     smearing contrib. (-TS)   =      -0.00018493 Ry

     convergence has been achieved in   9 iterations

     negative rho (up, down):  6.933E-07 0.000E+00

     Forces acting on atoms (cartesian axes, Ry/au):

     atom    1 type  1   force =     0.00000000    0.02079224    0.00000000
     atom    2 type  1   force =     0.00000000   -0.02079224    0.00000000
     The non-local contrib.  to forces
     atom    1 type  1   force =     0.00000000    0.02370120    0.00000000
     atom    2 type  1   force =     0.00000000   -0.02374381    0.00000000
     The ionic contribution  to forces
     atom    1 type  1   force =    -0.00000000    0.06637603   -0.00000000
     atom    2 type  1   force =     0.00000000   -0.06637603   -0.00000000
     The local contribution  to forces
     atom    1 type  1   force =     0.00000000   -0.06650934    0.00000000
     atom    2 type  1   force =     0.00000000    0.06651591    0.00000000
     The core correction contribution to forces
     atom    1 type  1   force =     0.00000000   -0.00278870    0.00000000
     atom    2 type  1   force =    -0.00000000    0.00280141    0.00000000
     The Hubbard contrib.    to forces
     atom    1 type  1   force =     0.00000000    0.00000000    0.00000000
     atom    2 type  1   force =     0.00000000    0.00000000    0.00000000
     The SCF correction term to forces
     atom    1 type  1   force =     0.00000000    0.00000139   -0.00000000
     atom    2 type  1   force =     0.00000000   -0.00000138   -0.00000000

     Total force =     0.029405     Total SCF correction =     0.000002

     Computing stress (Cartesian axis) and pressure

     negative rho (up, down):  6.933E-07 0.000E+00
          total   stress  (Ry/bohr**3)                   (kbar)     P=   12.45
   0.00009055   0.00000000   0.00000000         13.32      0.00      0.00
   0.00000000   0.00016394   0.00000000          0.00     24.12      0.00
  -0.00000000   0.00000000  -0.00000049         -0.00      0.00     -0.07

     kinetic stress (kbar)    527.98      0.00      0.00
                                0.00    525.31      0.00
                                0.00      0.00    656.13

     local   stress (kbar)  -6541.29     -0.00     -0.00
                               -0.00  -6588.84     -0.00
                               -0.00     -0.00   6824.15

     nonloc. stress (kbar)    447.67      0.00      0.00
                                0.00    454.56      0.00
                                0.00      0.00    378.99

     hartree stress (kbar)   2913.44      0.00      0.00
                                0.00   2919.99     -0.00
                                0.00     -0.00  -2842.69

     exc-cor stress (kbar)    778.06      0.00      0.00
                                0.00    778.42     -0.00
                                0.00     -0.00    768.95

     corecor stress (kbar)  -1036.27     -0.00     -0.00
                               -0.00  -1037.18      0.00
                               -0.00      0.00  -1027.85

     ewald   stress (kbar)   2923.73      0.00     -0.00
                                0.00   2971.85     -0.00
                               -0.00     -0.00  -4757.74

     hubbard stress (kbar)      0.00      0.00      0.00
                                0.00      0.00      0.00
                                0.00      0.00      0.00

     london  stress (kbar)      0.00      0.00      0.00
                                0.00      0.00      0.00
                                0.00      0.00      0.00

     DFT-D3  stress (kbar)      0.00      0.00      0.00
                                0.00      0.00      0.00
                                0.00      0.00      0.00

     XDM     stress (kbar)      0.00      0.00      0.00
                                0.00      0.00      0.00
                                0.00      0.00      0.00

     dft-nl  stress (kbar)      0.00      0.00      0.00
                                0.00      0.00      0.00
                                0.00      0.00      0.00

     TS-vdW  stress (kbar)      0.00      0.00      0.00
                                0.00      0.00      0.00
                                0.00      0.00      0.00

     Writing output data file silicene.save/

     General routines

     Parallel routines

   This run was terminated on:  21:38:43  22Sep2023

   JOB DONE.